21
WP4-B parent_graph_contraction+MMFF94s; parent_sha256=0ca2fa7427c663fefa886b5408740c1b6ee53b59d8581ee1f7811b7455e45074
C   0.6049256668 -0.7389335860  0.0188211223
C   0.7296039550  0.7128429700 -0.0745977851
C  -0.4228082555 -1.5556328697 -0.2543978445
C  -0.1577386497  1.6621381742  0.2633594798
C  -1.7081215252 -1.2058838800 -0.8106745639
C  -1.4275480903  1.4966897615  0.9338065543
C  -2.5674121187 -0.2494606427 -0.4409900884
C  -2.4483306932  0.6801431391  0.6489713731
C   2.1075905444  1.0620140733 -0.3826633931
C   2.0369117774 -1.2213192527  0.1727349020
C   2.8707519810 -0.0283683295 -0.2222227070
H  -0.2396917376 -2.6290619321 -0.2252054130
H   0.1528463685  2.7044827923  0.1971642561
H  -2.0139255175 -1.8548377931 -1.6313992594
H  -1.5602972987  2.1783305183  1.7741057729
H  -3.5139162740 -0.1871821054 -0.9764320632
H  -3.3415141334  0.7546482967  1.2679999785
H   2.4568498128  2.0513412985 -0.6352910911
H   2.2489155557 -1.5057529489  1.2088596525
H   2.2494629584 -2.0668431555 -0.4900395335
H   3.9434456738 -0.0593545282 -0.3419093492
