21
WP4-B deterministic ETKDG discovery-audit best; attempt=2; prescreen_energy=48.712050598992
C   0.8781830393  1.4718990812 -2.8176520321
C  -0.1607598858  0.6429112499 -2.6651616620
C  -0.9410791225  0.3415018814 -1.4863743198
C  -0.4993630507 -0.0305950704 -0.2742754185
C  -1.3957420578 -0.6668482217  0.6782775851
C  -0.6598757030 -1.3459786147  1.5695529401
C   0.8139449593 -1.1769126174  1.2981071177
C   0.8714874424 -0.1058046982  0.2227529569
C   1.9159762929  0.7188238869  0.0586946846
C   1.9400439361  1.9934060065 -0.6185487628
C   1.4893449884  2.3236576704 -1.8341131044
H   1.2919001255  1.5829258493 -3.8191700390
H  -0.5177482225  0.1293999871 -3.5580358307
H  -2.0065882793  0.2518944259 -1.6961054510
H  -2.4735332145 -0.6427491175  0.6297429198
H  -1.0567232503 -1.9503189719  2.3715758688
H   1.3319005993 -0.8595882255  2.2093615144
H   1.2442024930 -2.1186908344  0.9412730466
H   2.8183490717  0.5155458242  0.6340500330
H   2.4341445871  2.7774944115 -0.0446870577
H   1.6514448196  3.3465433333 -2.1715622966
