21
WP4-B ETKDGv3+MMFF94s; pre_energy=61.290818396015
C   0.1618612612  0.4523726331  0.6237487085
C   0.4366394895 -0.5244576560  1.5140200219
C   2.3156794529 -1.9712241441 -0.6688014728
C   1.1823362671 -1.6328588235  1.4921323999
C   0.5251197693  0.7035322340 -0.6372263149
C   2.0450451387 -1.0091233890 -1.5456484299
C   1.9577500168 -2.2265865825  0.5861402265
C   1.3046173779  0.0952874696 -1.5299877371
C  -0.6766587652  1.3538552664  1.1934482665
C  -0.2197840431 -0.2703223662  2.6737045292
C  -1.0094118476  0.9755757860  2.5827729597
H   2.9920864940 -2.7316767157 -1.0757995265
H   1.1721200118 -2.2081668955  2.4256844394
H   0.0956273197  1.6187421200 -1.0621148795
H   2.5506535960 -1.1623879471 -2.5060298432
H   2.4111525248 -3.1495955236  0.9664840524
H   1.3464238071  0.6354919638 -2.4831991360
H  -1.0769571694  2.2471709521  0.7337251095
H  -0.2003221212 -0.8692444804  3.5739880740
H  -0.6702012532  1.7261245949  3.3015985548
H  -2.0792802105  0.7898371215  2.7091864937
