23
WP4-B ETKDGv3+MMFF94s; pre_energy=41.275199137420
C  -0.7735393364 -0.9432196193  0.2053555555
C   0.2830071566 -0.6829629806  1.0072360626
C  -2.0340086488 -0.2622360523  0.0294058617
C   0.4440303138  0.4498172623  1.8856503622
C  -2.3199316817  1.0393471902 -0.1315959979
C   0.3234508500  1.7278615403  1.4993911560
C  -1.4634825771  2.2774951993 -0.1809887422
C   0.0335453393  2.1585739772  0.0900513875
C   1.2227330772 -1.7868171743  0.8997456131
C  -0.5605954326 -2.2683061269 -0.4943333124
C   0.7660019900 -2.7068097841  0.0414373031
H  -2.8838810282 -0.9470357017  0.0028292261
H   0.7000744136  0.2232547978  2.9175264815
H  -3.3789071755  1.2712310284 -0.2598447559
H   0.4525219893  2.5146527368  2.2380154325
H  -1.8910136361  3.0001717332  0.5271004173
H  -1.5920331134  2.7196923274 -1.1773436059
H   0.5083785927  1.4959229576 -0.6432945317
H   0.5018468280  3.1392449684 -0.0632501785
H   2.1543668779 -1.8340983618  1.4435560873
H  -1.3391337106 -2.9932839649 -0.2348981957
H  -0.5194104491 -2.1428022040 -1.5811679650
H   1.2663713614 -3.6246271007 -0.2258615773
