21
WP4-B deterministic ETKDG discovery-audit best; attempt=1; prescreen_energy=61.290818410276
C   3.0171957057 -0.2992544457  0.0972527734
C   2.2491739912 -1.3838865428  0.1354261474
C   0.9541675828 -1.6116586330  0.3336203214
C  -0.1165900694 -0.8572140329  0.5762974657
C  -0.3334651943  0.4530438526  0.7221913695
C  -1.6157393605  0.8213639131  0.9680744985
C  -1.7361910384  2.2873658479  1.1108098527
C  -0.3191968558  2.6523922248  0.9036217305
C   0.4463158331  1.5542806371  0.6834277831
C   1.7484958526  1.7767355795  0.4835850340
C   2.8076666012  1.0059255125  0.2414890429
H   4.0691147376 -0.5367304707 -0.0990482515
H   2.8163902401 -2.3058796857 -0.0367871675
H   0.7093114090 -2.6793231557  0.2854537569
H  -1.0126700683 -1.4817273429  0.6744196858
H  -2.4721861211  0.1670083143  1.0570444267
H  -2.0888471770  2.5721054482  2.1056234558
H  -2.3843953623  2.7193507920  0.3437917849
H   0.0155769586  3.6803212637  0.9333837049
H   2.0422604390  2.8325708666  0.5225545887
H   3.7308633007  1.5878241198  0.1352600106
