23
WP4-B parent_graph_contraction+MMFF94s; parent_sha256=aff8551122c954de7d5d63bbba0463f0dbcc1875b833da2fd2417623de903344
C  -1.9987419895  0.6598481811 -0.4383337983
C  -2.4311273825 -0.6362795363  0.2400250888
C   0.9449469782  0.7501808266  0.1388473444
C   0.8890501364 -0.7102133451  0.0071447845
C  -0.0488186670 -1.6732089142  0.5410864839
C  -0.0072874264  1.6485796386  0.7400254155
C  -1.3865221030 -1.6400451221  0.6498927270
C  -1.3271935182  1.6059728979  0.5142522381
C   2.1113867797  1.1907892165 -0.3667714171
C   2.0328188545 -1.1164383280 -0.5793479589
C   2.9100559293  0.0492719613 -0.9020690324
H  -1.3770486894  0.4539373767 -1.3175463188
H  -2.8899614384  1.1670100282 -0.8302718614
H  -3.0282746359 -0.3947076758  1.1294002026
H  -3.1122874256 -1.1556305738 -0.4470386506
H   0.4335211749 -2.5815643762  0.9081780935
H   0.3932117488  2.4015607557  1.4146428995
H  -1.8344581622 -2.5240391444  1.1081636271
H  -1.9688056313  2.3142062223  1.0326535447
H   2.4376280765  2.2196678082 -0.3993113470
H   2.3148526446 -2.1413022365 -0.7714891530
H   3.8743940045 -0.0302931650 -0.3919890944
H   3.0686607418  0.1426975042 -1.9801438178
