21
WP4-B ETKDGv3+MMFF94s; pre_energy=48.712050645889
C   0.5896526063  0.7518189133 -0.4033323327
C  -0.0020216927  0.1313229294  0.7785431866
C   0.0299988190  1.2152523525 -1.5302301569
C  -1.1275230110  0.4593471521  1.4330661022
C  -1.3579498984  1.1496775278 -1.9215051624
C  -1.9851064340  1.6019791719  1.2134471744
C  -2.4556285019  1.4907508117 -1.2369879758
C  -2.5415097774  2.0526680061  0.0833276223
C   0.9441464913 -0.8101192275  1.3565798327
C   2.0741388616  0.4610772857 -0.2664555699
C   2.1417001177 -0.6170772514  0.7858886143
H   0.6939345295  1.5279062667 -2.3352543799
H  -1.3630605092 -0.0756001314  2.3526751773
H  -1.5019349682  0.7975294562 -2.9430281060
H  -2.2270159733  2.1386434064  2.1309584439
H  -3.4150011917  1.4017245432 -1.7450464580
H  -3.2005096251  2.9169758701  0.1555456435
H   0.7243624069 -1.5010632982  2.1558711728
H   2.6219162317  1.3495039782  0.0652661752
H   2.5008110640  0.0977844728 -1.2073763337
H   3.0465984214 -1.1457667994  1.0458959980
