21
WP4-B parent_graph_contraction+MMFF94s; parent_sha256=4415309f9fae34e6fe8e9bef16610bd36c2b3308bddd49dbda52e5890d90615b
C  -0.8300658184  0.4722082957 -0.0023781424
C  -0.4639157353 -0.8145956644 -0.1822499137
C   2.6199917135  0.0118374948  0.2594921292
C   0.7007170289 -1.4693495016 -0.1776131585
C  -0.1750429966  1.6084407173  0.2526023510
C   2.2593642041  1.2792391282  0.4366455363
C   1.9737055250 -1.1222353328  0.0057339069
C   1.1033868666  1.9364331059  0.4332723003
C  -2.1779000959  0.5740549676 -0.1177592974
C  -1.5691001531 -1.5655137460 -0.4168400474
C  -2.7943470674 -0.7393849359 -0.3986659224
H   3.7035578171 -0.1314927184  0.3419587768
H   0.6193112239 -2.5465560349 -0.3663080962
H  -0.8151434797  2.4947362627  0.3383673253
H   3.1153385907  1.9357701889  0.6309032105
H   2.6542269398 -1.9784953547 -0.0710187155
H   1.2354441263  3.0077015885  0.6259560029
H  -2.7700377219  1.4742527047 -0.0249484386
H  -1.6018693476 -2.6310723598 -0.5987978586
H  -3.3073636896 -0.7503980643 -1.3639595097
H  -3.4802579305 -1.0455807415  0.3956075614
