23
WP4-B deterministic ETKDG discovery-audit best; attempt=1; prescreen_energy=27.048421586449
C   1.1289030186  0.6974419605  1.7722410808
C  -0.1387499281  1.1289228694  1.6759726842
C  -1.0837610547  1.0768029533  0.5822218767
C  -2.0111562224  2.0429139786  0.4280575109
C  -2.9706432693  1.6921957752 -0.6623349006
C  -2.4776817589  0.3477881690 -1.0830876843
C  -1.3844467128  0.0073533051 -0.3764681638
C  -0.7195283446 -1.2555879345 -0.5717859680
C   0.6098196895 -1.4003413072 -0.6543700492
C   1.5944548573 -0.2678620742 -0.6152261698
C   2.0713163586  0.0372069064  0.8013219907
H   1.6031315129  0.8703546673  2.7403914269
H  -0.5427580367  1.6134772607  2.5673218711
H  -2.0909374942  2.9423899885  1.0208354063
H  -3.9948323137  1.6351363865 -0.2825468007
H  -2.9207086938  2.4119042800 -1.4843167951
H  -2.9418548623 -0.2476169499 -1.8551758530
H  -1.3566682401 -2.1327176753 -0.6565625062
H   1.0194726603 -2.3994104306 -0.7810488329
H   1.2011973399  0.6337127462 -1.0994045596
H   2.4596282585 -0.5646489730 -1.2222618451
H   2.9474009600  0.6940689064  0.7190329610
H   2.4333771312 -0.8894936632  1.2661562219
