23
WP4-B parent_graph_contraction+MMFF94s; parent_sha256=6669ee2200bc91ef6a4b8820357d283190a0354e9b44da58951230737a779dfa
C   0.9350697302 -0.5088034735 -0.2051371886
C   0.9234833995  0.8333051295 -0.0449920468
C   0.0307298479 -1.4000331231 -0.8916913907
C  -0.0979531168  1.7489721060 -0.4910345433
C  -1.3089895896 -1.4821690607 -0.8775911174
C  -1.4011503771  1.6253617761 -0.2020180241
C  -2.3760465601 -0.6913798383 -0.1669599805
C  -1.9747974644  0.5316669779  0.6527094681
C   2.1660771111  1.2288865111  0.5973582817
C   2.2241913118 -1.0717012295  0.3534999508
C   2.9276298973  0.1555444398  0.8415999965
H   0.5504120492 -2.1402956990 -1.5031518586
H   0.2426545410  2.5964167362 -1.0805109314
H  -1.7333941249 -2.2777143116 -1.4929185522
H  -2.0984823270  2.3615290416 -0.5932408256
H  -2.9032001130 -1.3862047013  0.4994591835
H  -3.1112835022 -0.3810433405 -0.9216449160
H  -2.8652573181  0.9313221189  1.1545894894
H  -1.2918948327  0.2480980714  1.4624041945
H   2.4160287156  2.2515789171  0.8372148350
H   2.8161314687 -1.5728266421 -0.4194816893
H   2.0316091097 -1.7644736777  1.1791133181
H   3.8984321441  0.1639632717  1.3124243471
