23
WP4-B deterministic ETKDG discovery-audit best; attempt=4; prescreen_energy=41.275199128935
C   0.0377310255  0.6177760751  2.3322059554
C  -0.1696602130 -0.6209649876  1.8635458362
C   0.2645528738 -1.0825538021  0.5677345750
C   0.0088869012 -0.5035249445 -0.6265839881
C  -0.7887550935  0.6452698285 -0.9836824589
C  -0.8541608982  1.8754742286 -0.4506626188
C  -0.1479818458  2.5280323903  0.7088368858
C   0.7785668013  1.6888539606  1.5840421575
C   0.5953780135 -1.3524698870 -1.7338704516
C   1.2086181262 -2.4894764742 -0.9786542631
C   1.0010133015 -2.3134687749  0.3319199991
H  -0.3370590664  0.8759920112  3.3191824823
H  -0.6768961530 -1.3525061132  2.4874189478
H  -1.4225739761  0.4652178544 -1.8541970031
H  -1.5476249054  2.5600474861 -0.9427119054
H  -0.9175339821  2.9814459523  1.3480867511
H   0.4366293238  3.3633690636  0.3023510434
H   1.2583511221  2.3427939873  2.3234296501
H   1.6019445469  1.2744627984  0.9901576459
H   1.3570409665 -0.8028053843 -2.2963589957
H  -0.1780788831 -1.7173449063 -2.4177206997
H   1.7314094327 -3.3187471014 -1.4294363889
H   1.3273896512 -2.9753585908  1.1201380627
