23
WP4-B ETKDGv3+MMFF94s; pre_energy=27.048421574022
C  -0.9561057966  0.5087974502 -1.3393128737
C   0.4152984540 -0.0069300717 -1.7639885240
C   0.6128950279 -0.4952307363  1.4199337737
C   1.3202302880 -1.5307305899  0.6579370183
C   0.9498169651 -2.1632533199 -0.5822225119
C  -0.6950680756  0.0922015822  1.2296470240
C   0.5189454341 -1.5012122530 -1.6643463301
C  -1.3363019226  0.4843628074  0.1172545990
C   1.3181268080 -0.2543458217  2.5432424232
C   2.4281268796 -1.8898211217  1.3317228446
C   2.5544674610 -1.0922769834  2.5868878772
H  -1.7322158201 -0.0336796018 -1.8954616335
H  -1.0292220200  1.5549732932 -1.6647884301
H   1.2136835039  0.4970694522 -1.2067774030
H   0.5841433421  0.2640070001 -2.8143137389
H   1.0349025152 -3.2466832741 -0.6200388015
H  -1.2370433740  0.2414016252  2.1658739177
H   0.2419069070 -2.0699425078 -2.5485385671
H  -2.3347858990  0.8948691160  0.2804120252
H   1.0334360955  0.4233334038  3.3347656068
H   3.1418511042 -2.6383429327  1.0212465816
H   3.4561989702 -0.4734546717  2.5786434006
H   2.5595214937 -1.7413950757  3.4672735167
