25
WP4-B parent_graph_contraction+MMFF94s; parent_sha256=0ca2fa7427c663fefa886b5408740c1b6ee53b59d8581ee1f7811b7455e45074
C  -1.2056050756 -0.8151668542 -0.1801071127
C  -1.1277652133  0.4823093578  0.2257306288
C  -0.3044203591 -1.5282809647 -0.8725892654
C  -0.2646692066  1.5037779635  0.0276904385
C   0.9992550778 -1.2976264276 -0.7453733542
C   0.9675877676  1.8711364702 -0.3674603770
C   1.5222474095 -1.1279021274  0.4879576798
C   2.2564861713  1.5121585326 -0.5195412153
C   2.7210816844 -0.5672303872  0.6211367130
C   3.0594879108  0.5244078199 -0.0762659762
C  -2.4467461586  0.8125962297  0.7954602627
C  -2.6217469469 -1.3338832767 -0.0064140958
C  -3.3091950026 -0.1997282531  0.6655712621
H  -0.6598511574 -2.2136844159 -1.6380727440
H  -0.8125438895  2.4428834825  0.2112989973
H   1.6589946582 -1.3970385092 -1.6050162694
H   0.9206506877  2.9441292283 -0.6240572482
H   1.0322470831 -1.5725201312  1.3522538831
H   2.8543772946  2.3187049038 -0.9645523822
H   3.3952827195 -0.9001465319  1.4065585406
H   4.1257308345  0.7607457201 -0.1007584483
H  -2.6906966084  1.7648207041  1.2461695552
H  -2.6378916879 -2.2205618636  0.6363511775
H  -3.0947087077 -1.5622534570 -0.9673928714
H  -4.3375892854 -0.2016472126  0.9914222216
