27
WP4-B ETKDGv3+MMFF94s; pre_energy=53.210631876201
C  -0.6025505133  0.1432884235  1.1287792053
C  -0.9948514641  0.5981037914 -0.0793186993
C  -1.2267684477 -0.8492760074  1.9665993679
C  -2.1441027267  0.1379180293 -0.8174847092
C  -0.8628226773 -2.1370771870  2.0731610946
C  -2.1848926338 -0.9715672296 -1.5713907970
C   0.1957895079 -2.7820348184  1.3333578825
C   0.1245091108 -3.1797805428  0.0537549082
C  -1.0828268045 -3.1174529825 -0.8447940529
C  -1.0448702131 -1.9264130924 -1.8094963331
C  -0.0250726262  1.5786894400 -0.5329789458
C   0.6692596730  0.8329492278  1.5518518056
C   0.9364594264  1.7381635217  0.3865040866
H  -2.0340393607 -0.4793193510  2.5949365792
H  -3.0351182853  0.7542202125 -0.7238343638
H  -1.3743670043 -2.7686641459  2.7963624676
H  -3.1239141282 -1.2236287760 -2.0596704503
H   1.1167099179 -2.9479278170  1.8887972557
H   1.0118415339 -3.6298904117 -0.3876565035
H  -2.0086258852 -3.1355221058 -0.2567099196
H  -1.0948446035 -4.0463833040 -1.4300419632
H  -1.1415949775 -2.2959795973 -2.8386333435
H  -0.0801701771 -1.4060019096 -1.7770959973
H  -0.0890352349  2.0875815647 -1.4828957953
H   0.5262834764  1.4121881661  2.4696339493
H   1.4921698538  0.1238322726  1.6860275464
H   1.7828772810  2.4023257773  0.3054138731
