25
WP4-B deterministic ETKDG discovery-audit best; attempt=2; prescreen_energy=54.482048682133
C  -2.2618879558 -0.8577953226  1.3155116944
C  -1.1564344494 -0.4323782125  0.6709583637
C  -1.3121979503  0.2213890277 -0.6043242512
C  -1.2901491363  1.5521092731 -0.7729446727
C  -0.8801107825  2.4811774406  0.2581980368
C   0.4047671960  2.8224186883  0.4430096538
C   1.4465394347  2.3809586918 -0.4495765056
C   2.1469925692  1.2406912369 -0.4173319199
C   2.2675546141  0.2236038379  0.5957040227
C   1.4352180482 -0.4947479867  1.3611090599
C   0.0039686453 -0.5976723327  1.5527953339
C  -0.4450286883 -1.1484473179  2.7034216098
C  -1.9208453468 -1.3540376267  2.6750942308
H  -3.2716265613 -0.8065133881  0.9349774652
H  -1.5774580129 -0.4193765989 -1.4406494489
H  -1.5121269146  1.9784726826 -1.7471627195
H  -1.6567858416  2.8831351267  0.9014914963
H   0.6800927145  3.5275291835  1.2208263390
H   1.6181280939  3.0573359033 -1.2865648899
H   2.8603068112  1.1002361634 -1.2314300940
H   3.3238758704 -0.0267092646  0.7353806134
H   1.9675995352 -1.1888036371  2.0193438658
H   0.1656018624 -1.4466354448  3.5436683282
H  -2.1776782669 -2.4110521191  2.7884770438
H  -2.4188069846 -0.7670155880  3.4519592002
