27
WP4-B ETKDGv3+MMFF94s; pre_energy=38.791334046265
C  -1.5410215646 -0.8367218663  2.9828606724
C  -0.9610938784  0.5822739144  3.0225824448
C  -0.0367555591 -0.0632404601 -0.4364297157
C   0.5812953189  0.9510816283  0.4167028889
C  -2.5662645782 -1.0133583908  1.8924482075
C   1.2019497026  0.7734470778  1.7046093104
C  -0.0951873629 -1.4913626284 -0.2307037585
C  -2.3859464051 -1.6330819570  0.7154371071
C   0.5366545696  0.5899600558  2.8562214213
C  -1.1380408693 -2.1884688160  0.2483676795
C  -0.5924365516  0.5485484779 -1.4981331557
C   0.3951412111  2.1601069393 -0.1420821953
C  -0.3659910763  2.0253144129 -1.4229483234
H  -2.0447375155 -1.0414126094  3.9366708806
H  -0.7523957436 -1.5949247521  2.9050220444
H  -1.4401042554  1.2381685018  2.2856503487
H  -1.1834088335  1.0334281303  3.9983526752
H  -3.5565302091 -0.6190300991  2.1125280896
H   2.2892602168  0.7681908918  1.7059132949
H   0.8018958000 -2.0295368737 -0.5283311861
H  -3.2302190613 -1.7464420949  0.0386829652
H   1.1160151558  0.4342608696  3.7637659926
H  -1.0680717523 -3.2730658425  0.2925024952
H  -1.1293410978  0.0590438589 -2.2966935696
H   0.7099474155  3.1036876096  0.2777315542
H  -1.3147486564  2.5677746318 -1.3771576903
H   0.2225745588  2.3807387488 -2.2735526512
