27
WP4-B parent_graph_contraction+MMFF94s; parent_sha256=aff8551122c954de7d5d63bbba0463f0dbcc1875b833da2fd2417623de903344
C  -2.9547507879 -0.2930788351 -0.2506947322
C  -2.1695283355 -1.3720869865  0.5401833267
C   1.7092752270  0.7093787459 -0.1940276120
C   1.5410054257 -0.6855573595  0.2545691811
C  -2.7849199316  1.1563345817  0.1747466371
C   0.3215342112 -1.1978119737  0.8461952215
C   0.6891059154  1.7310277575 -0.0552020900
C  -1.7358177475  1.9772120116 -0.0275463429
C  -0.7418549278 -1.4757983617  0.0728507845
C  -0.5059063352  1.5415629994 -0.6420243759
C   2.9324490230  0.8529192971 -0.7242049527
C   2.6539700031 -1.3745226344 -0.0361808431
C   3.6594859542 -0.4616953469 -0.6792231118
H  -2.7567485708 -0.3829685443 -1.3266454339
H  -4.0231510815 -0.5233066785 -0.1386422004
H  -2.6456233597 -2.3455876406  0.3726119290
H  -2.2271748372 -1.1652860440  1.6152997059
H  -3.6406882242  1.5733391230  0.7049890643
H   0.2009471922 -1.0090844384  1.9100167367
H   0.8057854112  2.3999431279  0.7930068072
H  -1.7615749685  2.9881735136  0.3732777826
H  -0.6024692245 -1.5837813293 -1.0019847288
H  -0.5997663481  0.7958107474 -1.4283432168
H   3.3412300973  1.7629501099 -1.1358435283
H   2.8140723176 -2.4249809122  0.1525342491
H   4.5681937319 -0.3887588318 -0.0745790888
H   3.9129201702 -0.8043460981 -1.6867612661
