25
WP4-B ETKDGv3+MMFF94s; pre_energy=51.419728574354
C  -2.1765685600 -0.0269933484 -0.4785007359
C  -1.5277118843  1.2277572900 -0.0654468158
C   1.5131722431 -1.3081589926 -0.6386504534
C   1.2192552227 -2.3529760970  0.3308233334
C  -0.3116122721  1.4077304230  0.7079594900
C  -1.6243441370 -1.3485694087 -0.3192521823
C   1.3571804550  0.0265833919 -0.5720380866
C   0.0522534518 -2.5844271282  0.9601075519
C   0.9006451799  0.8495746893  0.5285246524
C  -1.0908445868 -1.7118760440  0.8580526633
C  -3.3154175628  0.2557141996 -1.1304651370
C  -2.3346645813  2.2469551452 -0.4121789903
C  -3.5401545124  1.7354875583 -1.1416158743
H   1.9440525219 -1.7030560612 -1.5595521152
H   2.0308462898 -3.0621723879  0.4854014319
H  -0.4274785993  2.0764963669  1.5603763771
H  -1.3727441161 -1.8690111919 -1.2395074758
H   1.6616466047  0.6085575211 -1.4421086877
H  -0.0316388817 -3.4131499840  1.6576653954
H   1.6867335128  1.1070926880  1.2370852050
H  -1.3228481055 -1.1636172015  1.7691629584
H  -3.9824219087 -0.4646791520 -1.5790726791
H  -2.1545845836  3.2921705921 -0.2100138785
H  -4.4616990841  1.9985338212 -0.6142794698
H  -3.5760981232  2.1229688575 -2.1638988125
