25
WP4-B ETKDGv3+MMFF94s; pre_energy=179.137160556962
C  -1.0480017012 -1.6694612749 -0.6499581718
C  -1.0715665599 -1.1084174562 -1.8896663444
C  -0.2328713270 -1.5797896225  0.4256859957
C  -0.3017017320 -0.1289486613 -2.3835723993
C   0.7276479156 -0.8769076927  1.0507288248
C   0.1863888372  0.8273998867 -1.5978199219
C   1.2990113928  0.3281049765  1.2379009035
C  -0.6169106644  1.4107816225 -0.6828964612
C   0.9743908282  1.6151625908  1.0017145194
C  -0.0757470451  2.0935246281  0.3223487574
C  -1.8936492540 -1.9129397981 -2.7807495889
C  -2.0441733624 -2.8434553668 -0.6842710080
C  -2.4845314092 -2.9014185041 -2.1068178155
H  -0.3781059010 -2.4973730870  1.0196836883
H   0.0369322476 -0.2000980267 -3.4143972761
H   1.2253152123 -1.5620622398  1.7592634137
H   1.1774668156  1.2343561600 -1.7882487059
H   2.1589592273  0.2702821012  1.9183833529
H  -1.6927738198  1.4416503917 -0.8449423730
H   1.5072354937  2.3386217321  1.6230439106
H  -0.5667915757  2.9857605141  0.7031800237
H  -2.0118726431 -1.7180707701 -3.8368860699
H  -1.5701999900 -3.7913659832 -0.4051268543
H  -2.8978893917 -2.6478793766 -0.0261465553
H  -3.1565467409 -3.6373929869 -2.5196999349
