27
WP4-B deterministic ETKDG discovery-audit best; attempt=6; prescreen_energy=38.791334039940
C   1.4115430609 -2.1925599626  1.0570719466
C   0.2035734430 -2.2532734761  1.6393530867
C  -0.5148885926 -1.1293280236  2.3406966655
C  -1.6364045293 -0.5236969980  1.4881371890
C  -1.4409230132  0.9523599559  1.2556993933
C  -0.8587381020  1.5121972475  0.1832531022
C  -0.2793115937  0.7790894905 -0.9132353239
C  -0.9298326157  0.5634130749 -2.0703625291
C  -0.1137360293 -0.3143424740 -2.9657062675
C   1.0994358083 -0.5723201920 -2.1293862393
C   0.9979426647  0.0678103497 -0.9503134622
C   2.0169154129  0.0037611790  0.0708931990
C   2.2198524894 -1.0026277491  0.9363459654
H   1.8461507957 -3.0972438720  0.6371833634
H  -0.3112833145 -3.2121620042  1.6424851122
H  -0.9515553358 -1.5468004145  3.2574430436
H   0.1934427124 -0.3644413623  2.6813962072
H  -1.7577624355 -1.0568995367  0.5375124649
H  -2.5926472302 -0.6476403083  2.0128563193
H  -1.8149967740  1.6098073300  2.0376007771
H  -0.7805977435  2.5947797188  0.1185820156
H  -1.9139867694  0.9317559067 -2.3182645713
H  -0.6410711599 -1.2453337734 -3.1930317250
H   0.1466423121  0.1997081164 -3.8953410528
H   1.9290621711 -1.1886922337 -2.4414532159
H   2.6867449788  0.8602596455  0.0975763533
H   3.0681259949 -0.9477174244  1.6150313211
