25
WP4-B parent_graph_contraction+MMFF94s; parent_sha256=4415309f9fae34e6fe8e9bef16610bd36c2b3308bddd49dbda52e5890d90615b
C   0.8415278878 -0.9739673873 -0.3442039366
C   1.2529645235  0.2397077851  0.3846170358
C  -2.3638964823  1.3296800046 -0.5964371399
C  -2.6954096279  0.4440554007  0.4987531400
C   0.5949884071  1.3961542660  0.9565892049
C  -0.3741534746 -1.4733008633 -0.9526621783
C  -1.2533979707  2.0806782980 -0.6111912939
C  -2.2979386490 -0.8356108637  0.5424111807
C  -0.3870359480  2.1998317494  0.5304177878
C  -1.6569538304 -1.4830323637 -0.5702622531
C   1.9498245098 -1.7235220863 -0.5475940830
C   2.5787837183  0.1356071460  0.6354049901
C   3.1542669841 -1.1060747571  0.0612469560
H  -3.0408750615  1.3362893181 -1.4456777573
H  -3.2569962757  0.8716115838  1.3242010762
H   1.0614931714  1.7248181780  1.8887004086
H  -0.1830860318 -2.0322374898 -1.8722058061
H  -1.0479945145  2.7314917962 -1.4557742347
H  -2.5727487817 -1.4621625929  1.3856102797
H  -0.6099676030  3.0762197844  1.1398075625
H  -2.3570803610 -2.0355975001 -1.1976389884
H   1.9890575563 -2.6652730372 -1.0769694251
H   3.1790570274  0.8530870922  1.1772280155
H   3.5815014256 -1.7458185727  0.8384932689
H   3.9140694008 -0.8826348883 -0.6928638103
