25
WP4-B deterministic ETKDG discovery-audit best; attempt=18; prescreen_energy=171.190826036776
C   2.6950370409 -3.2169860572 -0.0889820155
C   1.6479786419 -2.8429821857 -0.8173029049
C   1.1481419780 -1.4907236673 -0.4511952199
C   0.0987509952 -1.1163789203 -1.1813980248
C  -0.7970272546 -0.1721944494 -1.4248568698
C  -1.2429520206  1.0287387576 -1.1015766502
C  -1.0523703840  2.0608646374 -0.2999582709
C  -0.2811138347  2.5063731186  0.6749606696
C   0.7565050297  2.1818357044  1.4247273520
C   1.6471776123  1.2355023727  1.6622235544
C   2.0828952530  0.0319747578  1.3280279950
C   1.9298968856 -1.0322391829  0.5411887745
C   2.9954733720 -2.1234842541  0.8502107103
H   3.2300863000 -4.1497312623 -0.1677980329
H   1.2205427260 -3.4703420535 -1.5889519111
H  -0.1461077092 -1.9209563926 -1.8941591013
H  -1.4466070367 -0.5387242346 -2.2406723969
H  -2.1064056694  1.2612048100 -1.7483044751
H  -1.8107944898  2.8285784999 -0.5253508376
H  -0.6294074885  3.5104780833  0.9676981352
H   0.9514538923  3.0215851392  2.1133565505
H   2.2936724061  1.6066447019  2.4780485590
H   2.9410024636 -0.1580071575  1.9957791576
H   2.9068696224 -2.4836850968  1.8825044073
H   4.0108434817 -1.7481836806  0.6730255782
