27
WP4-B parent_graph_contraction+MMFF94s; parent_sha256=6669ee2200bc91ef6a4b8820357d283190a0354e9b44da58951230737a779dfa
C   1.4529124227  0.7805886068  0.3080510870
C   1.4354517693 -0.5374702160  0.0117421541
C   0.6438906830  1.8488431437 -0.2363866532
C   0.4912891929 -1.1032437676 -0.9127080396
C  -0.6818724493  2.0526846549 -0.1384954378
C  -0.5420526336 -1.8374963550 -0.4735958644
C  -1.6641793731  1.2943881431  0.6039129746
C  -2.4339702269  0.2851638087  0.1605528206
C  -2.4339733738 -0.3589213053 -1.2073234752
C  -1.8607523510 -1.7962399614 -1.1943623139
C   2.4536899938 -1.2071266270  0.7924904488
C   2.5543225916  1.0595901496  1.2981718034
C   3.1184117507 -0.3115244950  1.5361666387
H   1.2232168667  2.5961094299 -0.7785241191
H   0.4568650354 -0.6400820581 -1.8965762773
H  -1.0879318779  2.9515515215 -0.6019956250
H  -0.5614731675 -2.1919967163  0.5550281002
H  -1.8066157499  1.6360069013  1.6286566072
H  -3.1360522259 -0.1530954420  0.8686594501
H  -3.4656422440 -0.3915132570 -1.5777844727
H  -1.8768852718  0.2557168572 -1.9246146303
H  -2.5621662948 -2.4648569183 -0.6804452879
H  -1.7548448965 -2.1728074132 -2.2181396317
H   2.6328038719 -2.2709530532  0.7588669779
H   2.1596513137  1.4826670644  2.2274432306
H   3.3150382570  1.7265121648  0.8801437527
H   3.9308683872 -0.5324948604  2.2110657821
