27
WP4-B deterministic ETKDG discovery-audit best; attempt=3; prescreen_energy=53.210631862690
C   1.4154638131  0.4829297295 -1.5801963077
C   0.5310023108  1.4698503767 -1.7908663958
C  -0.9139569451  1.3172227551 -2.1880217215
C  -1.8755989372  1.4761198646 -1.0045249944
C  -2.6602576117  0.2175856118 -0.7428426348
C  -2.3475474004 -0.7405932492  0.1432166084
C  -1.1807739493 -0.7398528271  0.9894331445
C   0.0598604474 -1.1186206429  0.6184616300
C   0.5055758240 -1.6316387415 -0.6523374854
C   1.1224013202 -0.9301277471 -1.6165214315
C   1.0211012857 -0.9308960489  1.7642790098
C   0.1281131768 -0.3760575527  2.8336570631
C  -1.1217179820 -0.2709099677  2.3621800935
H   2.4509624342  0.7374337332 -1.3631693234
H   0.8854758712  2.4954324985 -1.7052440082
H  -1.1280495410  2.1019689673 -2.9255249323
H  -1.0751008035  0.3710784969 -2.7191694878
H  -1.3562143851  1.8133681954 -0.0995229486
H  -2.6004384707  2.2674097212 -1.2358763939
H  -3.5592473532  0.0866226111 -1.3414897272
H  -2.9973880601 -1.6063252205  0.2467362611
H   0.3577914663 -2.6999305494 -0.7947351260
H   1.4712127735 -1.4532326866 -2.5043814749
H   1.8153719759 -0.2193734707  1.5175068566
H   1.4611488839 -1.8822591863  2.0797955863
H   0.4547177118 -0.0957991582  3.8230479343
H  -1.9761647450  0.1095735863  2.9012135805
