37
WP4-B ETKDGv3+MMFF94s; pre_energy=182.297499427187
C  -0.1070638682  3.1027097155  1.6216005902
C   1.0472194423 -1.5439429265 -1.3989857037
C   0.5100673214  2.9317786918  0.4184149449
C   1.8392823623 -0.4423914418 -1.6287435609
C  -0.1014624789  2.3960691769 -0.6576888566
C   1.6058374007  0.8840208040 -1.4608539406
C  -1.2617098306  2.4556919110  1.8990969638
C  -0.2089525516 -1.5132195833 -0.9160944945
C   0.3912740694  1.4565328595 -1.4849608240
C  -1.6604126243  2.1202646801  3.1473315522
C  -0.8653625943 -2.4321031160 -0.1611108267
C  -2.3148042477  0.9540030093  3.4297413308
C  -1.9008285761 -1.8840103311  0.5161628182
C  -2.4532289142 -0.0162388079  2.5006064943
C  -2.2857822172 -2.2589260378  1.7550807262
C  -2.6441908709 -1.3397176956  2.7030413014
C   3.1010449103 -0.8566385244 -1.8760385248
C   1.7763620155 -2.6696630030 -1.5301599793
C   3.1773451667 -2.3403391421 -1.8944677053
H   0.4928030420  3.4956967322  2.4420488252
H   1.5934251635  3.0480818399  0.4297865902
H  -1.1815669622  2.5191145774 -0.7601441470
H   2.4584980127  1.5068906644 -1.1882123942
H  -1.7726032017  1.9869752414  1.0707220254
H  -0.6925480027 -0.5492285016 -0.9481145269
H  -0.3697461354  0.9861241524 -2.1117214511
H  -1.2856172971  2.6802679086  4.0040241347
H  -0.4083630981 -3.3728695397  0.1265546703
H  -2.5065207568  0.7227048215  4.4765050359
H  -2.2698015861 -0.9324880979  0.1410249817
H  -2.1889457114  0.2685542451  1.5014716342
H  -2.0954766191 -3.2715453718  2.1087384691
H  -2.8440835081 -1.7026952885  3.7100925520
H   3.9615271169 -0.2227744895 -2.0384725020
H   1.4356652316 -3.6807441586 -1.3634834893
H   3.8825223036 -2.7128298993 -1.1462776912
H   3.4432718197 -2.7230736652 -2.8834241808
