37
WP4-B deterministic ETKDG discovery-audit best; attempt=6; prescreen_energy=119.321307820031
C   1.4445041909 -0.8661301462 -3.5088138931
C   1.8305669722 -0.8079541644 -2.2179428755
C   2.8229768090 -1.5366566355 -1.7053464179
C   3.2700950331 -1.5367948048 -0.4410945673
C   2.9706759259 -0.9802680329  0.7423592017
C   2.0494290612 -0.2181997156  1.3533972301
C   0.8561178456  0.2913007833  0.9944003880
C   0.1523345132  1.0311579679  1.8797190031
C  -1.0365978735  1.6655424391  1.7697523814
C  -1.5554144191  2.1381012366  2.9309208989
C  -2.8881502423  2.7446052804  2.7231046746
C  -3.0063675831  2.5577272005  1.2606922930
C  -1.9041665816  1.9591927974  0.7546739730
C  -1.7222213599  1.7497714399 -0.5633542627
C  -2.5838265120  2.0058523468 -1.5695357539
C  -2.4597963094  1.7842582427 -2.8953769220
C  -1.5594959319  1.1493828825 -3.6716597759
C  -0.5243015708  0.4202976030 -3.2416195367
C   0.3814320791 -0.2012653696 -4.0153623823
H   2.0282552556 -1.4623539352 -4.2103823356
H   1.3584568337 -0.1082903279 -1.5590863625
H   3.3570133471 -2.2008604216 -2.3892172922
H   4.1594048232 -2.1776719512 -0.3586549621
H   3.7534375673 -1.2456721457  1.4702864602
H   2.3502257313  0.0065611633  2.3843454221
H   0.4299535918  0.0606407193  0.0397716712
H   0.6081460674  1.1006396706  2.8733927762
H  -1.1136541210  2.0635702722  3.9155503053
H  -2.9000251893  3.8023107038  2.9995389216
H  -3.6692408953  2.2058907298  3.2661847400
H  -3.8687896626  2.9191685005  0.7226867629
H  -0.7449803591  1.3947969264 -0.8205066256
H  -3.5293030505  2.4829314475 -1.3107168774
H  -3.2843558351  2.2131686531 -3.4760311805
H  -1.7161184329  1.2232181774 -4.7491507690
H  -0.4376127849  0.2634426254 -2.1862891498
H   0.2499058518 -0.2063820056 -5.0965518569
