37
WP4-B deterministic ETKDG discovery-audit best; attempt=17; prescreen_energy=63.519217120972
C   2.8672643438 -1.2091999912  2.0637056371
C   2.9828547859 -0.2305505330  1.1500075430
C   1.9636342071  0.7353986113  0.7945047427
C   2.1193777160  1.6559989554 -0.1719273551
C   1.1383612855  2.6665461918 -0.5291155471
C  -0.1814189002  2.4991423507 -0.7247937632
C  -0.8839318811  1.2404350871 -0.6035573326
C  -0.8359672250  0.2196815685 -1.4771678093
C  -0.2224986184  0.2760615189 -2.7916736489
C  -0.4067003993 -0.8971910231 -3.4108695429
C  -1.1597600107 -1.8668524905 -2.5394317035
C  -1.3677109669 -1.1285192564 -1.2307997626
C  -1.7380129737 -1.6396857860 -0.0460082505
C  -2.0351537299 -3.0333552253  0.1959781492
C  -2.0068155941 -3.6437414288  1.3921390546
C  -1.6863871975 -3.0855350766  2.6909304825
C  -0.5686228515 -2.4605456771  3.1001957848
C   0.6102295207 -2.1457277183  2.3192252261
C   1.6928720415 -1.5453256346  2.8394113278
H   3.7413391213 -1.8220566152  2.2784863653
H   3.9412257697 -0.1253294885  0.6438637610
H   1.0374965788  0.7019815808  1.3627146875
H   3.0554535235  1.7148122574 -0.7231962450
H   1.5537474494  3.6633089259 -0.6703117338
H  -0.8005017437  3.3621117242 -0.9582685738
H  -1.4262830947  1.1388092778  0.3328031479
H   0.2890167158  1.1337043553 -3.2002981359
H  -0.0605861641 -1.1319667680 -4.4063944516
H  -2.1194789624 -2.1188927480 -3.0025955052
H  -0.5680380351 -2.7771774419 -2.3973686909
H  -1.7428354038 -0.9999861234  0.8323560643
H  -2.2880715664 -3.6375604660 -0.6729857524
H  -2.2896821610 -4.6957749215  1.4266794852
H  -2.4571459512 -3.2682305424  3.4402152581
H  -0.5335140647 -2.1521745583  4.1450817742
H   0.6071908635 -2.4079105992  1.2639640874
H   1.7494226641 -1.3117183139  3.8997349533
