37
WP4-B ETKDGv3+MMFF94s; pre_energy=81.767040485411
C   3.4707091776  0.9561460620  1.9799267978
C  -1.7809923674 -1.0470588713 -1.2851159751
C   2.6318972116  0.2771719905  2.7910846656
C  -1.3006723693 -0.3330137134 -0.0807600972
C   1.5160885484 -0.5234522834  2.3125681579
C  -0.3551035471 -0.7996952874  0.7589427975
C   3.3449395343  0.9852507215  0.5316566383
C  -1.2507860054 -2.1664915808 -1.8025456202
C   0.4727440313  0.0014903180  1.6454256159
C   3.4475709333 -0.1189316227 -0.2285942387
C  -1.3796096042 -2.6023724412 -3.1829138669
C   2.8320131275 -0.2036185633 -1.5379951776
C  -0.3015752667 -2.8930115819 -3.9427005391
C   2.6307614556 -1.3829569105 -2.1513072383
C   1.0666218009 -2.7417449340 -3.4659186736
C   1.5518220745 -1.5401233873 -3.1064190939
C  -1.8773953831  0.9995490194 -0.0472650604
C  -2.7359322170 -0.0815102884 -1.9561552336
C  -2.6958124828  1.1535549983 -1.0966657618
H   4.2712074419  1.5548971880  2.4064617044
H   2.7980238860  0.2783649362  3.8652051059
H   1.6596662465 -1.5994354662  2.3784465319
H  -0.0147492302 -1.8268525954  0.6526762061
H   2.9803662993  1.9229046903  0.1184503027
H  -0.4964076270 -2.7096452563 -1.2378561356
H   0.3769212680  1.0821488428  1.5773866621
H   3.7840696928 -1.0514689134  0.2206096535
H  -2.3807489137 -2.6884450627 -3.5953185942
H   2.3117876580  0.6869203515 -1.8872156261
H  -0.4276440982 -3.2601742342 -4.9574560046
H   3.0896038603 -2.2906816543 -1.7662835100
H   1.5907819652 -3.6643837274 -3.2308059186
H   0.9706356447 -0.6458506859 -3.3320999270
H  -1.6856361464  1.7437756821  0.7097824733
H  -2.4173361537  0.1602585150 -2.9754053660
H  -3.7514544472 -0.4905808242 -1.9752507090
H  -3.2621311123  2.0476847828 -1.3121386491
