39
WP4-B deterministic ETKDG discovery-audit best; attempt=11; prescreen_energy=55.757318815096
C   3.0819244471  1.1602852895  1.2247992488
C   1.9129661900  1.7301079998  1.5588411949
C   0.5755240888  1.2966934009  1.2102747637
C  -0.5163018373  2.0020652087  1.5498152390
C  -1.9026818897  1.6602302733  1.2888854734
C  -2.4553801441  1.0735651283  0.2014518821
C  -1.8686287720  0.5644400354 -1.0125895854
C  -1.0306867492  1.2495501056 -1.8043749643
C  -0.4281723843  0.7191979118 -3.0098045941
C   0.3528145910 -0.3699143305 -3.1166939682
C   0.7192997048 -1.2568006514 -2.0369684118
C   1.6914871929 -2.1765469414 -2.1110930161
C   2.0691397866 -3.0378602747 -0.9345318779
C   3.2424379326 -2.4625443208 -0.1311863268
C   2.8706786702 -1.2480830734  0.6833775263
C   3.3399959484 -0.0174568974  0.4285711985
C  -3.9501380877  0.9404919367  0.3835846509
C  -4.1680914997  1.5985367097  1.7074474007
C  -2.9915166392  2.0092382366  2.1956477313
H   3.9915011163  1.6715287815  1.5415721455
H   1.9704135235  2.6450659836  2.1485528180
H   0.4769612691  0.3666563752  0.6626776819
H  -0.3927818583  2.9192739880  2.1240734642
H  -2.1666711940 -0.4460538564 -1.2864029751
H  -0.7756379387  2.2813958821 -1.5704704213
H  -0.5760594867  1.3344524583 -3.8959945247
H   0.7802070483 -0.5945636763 -4.0923965532
H   0.1993759053 -1.1411731535 -1.0910929724
H   2.2660749416 -2.3057973900 -3.0243343253
H   1.2041719146 -3.1974701719 -0.2778433097
H   2.3464681368 -4.0276583853 -1.3174411498
H   3.6014236605 -3.2302446550  0.5654806211
H   4.0817793659 -2.2406789230 -0.8025805786
H   2.2048533204 -1.4117195928  1.5279676716
H   4.0344639271  0.1322444534 -0.3964863706
H  -4.4980135227  1.4675816643 -0.4044007439
H  -4.2618436427 -0.1086357505  0.4128738173
H  -5.1282250575  1.7241358765  2.1835835311
H  -2.8445711558  2.5201378639  3.1359349903
