39
WP4-B ETKDGv3+MMFF94s; pre_energy=50.322885125101
C  -1.5558598087 -1.0614939221 -1.5541989953
C   2.0773180239 -1.0149485117  3.7834105234
C  -1.3439433790 -1.5124044051 -0.1947080219
C   1.9716780145 -2.3619425077  3.1868300094
C  -0.2783884666 -2.2504820024  0.1603030071
C   1.3898998276 -2.7144937049  1.9061503696
C  -2.3496804316 -0.0099149579 -1.8228156697
C   1.5559158421  0.2281170219  3.2487836958
C   0.1687535400 -2.2921853529  1.5375484811
C  -2.2445369961  0.7958592627 -3.0967590482
C   1.7821527467  0.6089256060  1.9802372244
C  -1.5539405305  2.1619563989 -2.8462916540
C   0.9689800111  1.5845876411  1.2835926177
C  -0.2368847277  1.9894365088 -2.1259732226
C   1.0043310746  1.6781192240 -0.0566322729
C  -0.0742911943  2.2689717162 -0.8207732661
C   2.5817805568 -3.2399399348  4.0005098877
C   2.6865653038 -1.1212315698  4.9761811151
C   3.0840623291 -2.5437460009  5.2286458627
H  -0.8874028282 -1.4471311609 -2.3207570992
H  -1.9632577270 -1.0526551695  0.5734994407
H   0.3900154759 -2.6555880344 -0.5954236885
H   2.0549925474 -3.2018691461  1.1984313627
H  -2.9684932323  0.4235674941 -1.0396513089
H   0.8421704528  0.7547706096  3.8764410255
H  -0.4580344027 -1.7820902136  2.2680145983
H  -3.2485123629  0.9611637515 -3.5035186433
H  -1.6816211409  0.2401507819 -3.8573591883
H   2.4839274817  0.0382954335  1.3731662465
H  -2.2270098185  2.8065884628 -2.2669606392
H  -1.3788509416  2.6657524647 -3.8035159861
H   0.1867318842  2.0816010560  1.8519781623
H   0.5287378758  1.4374506359 -2.6675625180
H   1.7491987612  1.1170123166 -0.6182317642
H  -0.8719602614  2.7589166968 -0.2668422927
H   2.6871902259 -4.2995586139  3.8216470033
H   2.8869088306 -0.3084212822  5.6581612436
H   4.1698445078 -2.6393623617  5.3206339405
H   2.6012751716 -2.9348804913  6.1289002822
