39
WP4-B published_B3LYP_6-31Gd_unconstrained; parent_sha256=f36292c7b4cd37abbe72dca7c35c6ab54fd3ea0b9317e106e3694f535f0a4ca3
C  -3.0482150000 -2.1913380000  0.3438830000
C   3.2632990000  0.6223810000  0.2647470000
C  -1.6820060000 -2.7072380000  0.2198180000
C   2.9316350000 -0.7775130000 -0.1790210000
C  -0.6823870000 -1.9694940000 -0.3180480000
C   1.5390020000 -1.0849240000 -0.4851040000
C  -3.6300410000 -1.2515590000 -0.4257600000
C   2.1297910000  1.5410990000  0.5107060000
C   0.7503580000 -2.1458390000 -0.1897690000
C  -4.8494420000 -0.4621570000 -0.0284650000
C   1.5516560000  2.3312360000 -0.4158880000
C  -4.5511050000  1.0759410000  0.0473440000
C   0.1443680000  2.7407770000 -0.4441540000
C  -3.1575430000  1.3594680000  0.5408020000
C  -0.8428350000  2.1289500000  0.2565620000
C  -2.2579850000  2.1692640000 -0.0561140000
H   1.1444030000 -3.0454390000  0.2814930000
H   1.0104030000 -0.2278650000 -0.8982960000
H  -0.9643460000 -1.0138180000 -0.7578610000
C   4.0805960000 -1.4911280000 -0.2420280000
C   4.5950020000  0.7166130000  0.4428020000
H   2.1114890000  2.5473760000 -1.3267370000
H  -0.1358140000  3.4441860000 -1.2281710000
H  -0.5646520000  1.3989660000  1.0158510000
H  -2.8254830000  0.7685510000  1.3950860000
H  -4.6793680000  1.5275450000 -0.9441100000
H  -5.6814580000 -0.6097750000 -0.7319050000
H  -3.1351440000 -0.9381900000 -1.3456100000
H   1.5703830000  1.3256240000  1.4238860000
H  -3.5891420000 -2.5313930000  1.2300100000
H  -1.4501730000 -3.6381700000  0.7368460000
H  -2.5628460000  2.7750540000 -0.9111580000
C   5.2427880000 -0.6103780000  0.1355150000
H   4.1828730000 -2.5188250000 -0.5725780000
H   5.1374210000  1.5876790000  0.7926960000
H   5.7980370000 -0.9989820000  1.0042160000
H   5.9803130000 -0.5401840000 -0.6795560000
H  -5.3098900000  1.5356890000  0.6983300000
H  -5.1986280000 -0.8129990000  0.9505970000
