39
WP4-B published_B3LYP_6-31Gd_unconstrained; parent_sha256=eec982b13860d3d117441865c99f8e11b6020ca9dc530a6fc62011d5086dbd1e
C  -2.8170040000 -1.9763050000 -0.8225160000
C   2.9077180000  0.4604560000  0.0095690000
C  -1.3904890000 -2.1358860000 -1.1113820000
C   3.0653450000 -0.8802270000  0.3276740000
C  -0.3994360000 -2.3554570000 -0.2116100000
C   1.9611710000 -1.8295500000  0.4572320000
C  -3.2333460000 -1.3500160000  0.2927970000
C   1.6272810000  1.0995790000 -0.1248590000
C   0.9499390000 -1.8880950000 -0.4473190000
C  -4.5933760000 -0.7938660000  0.6003110000
C   1.2569210000  2.3116330000 -0.6206780000
C  -4.6348330000  0.7730790000  0.4155470000
C  -0.1610200000  2.6480680000 -0.6977880000
C  -3.3335980000  1.4184060000  0.8032500000
C  -1.0841680000  2.2311210000  0.2078290000
C  -2.4973890000  2.0422150000 -0.0528720000
H   1.1016720000 -1.3716950000 -1.3947270000
H   1.8980620000 -2.4117930000  1.3789610000
H  -0.6507240000 -2.6977970000  0.7923390000
C   4.4884760000 -1.1397600000  0.5691480000
C   4.2726260000  1.1096730000 -0.0169390000
H   1.9824560000  2.9784750000 -1.0862140000
H  -0.5006010000  3.1502250000 -1.6062920000
H  -0.7220470000  1.8344690000  1.1566520000
H  -2.9736650000  1.2087860000  1.8129790000
H  -4.8458970000  0.9975250000 -0.6366180000
H  -5.3681630000 -1.2458680000 -0.0300810000
H  -2.4628430000 -1.0749500000  1.0100750000
H   0.8047710000  0.4616610000  0.1818110000
H  -3.5277800000 -2.1984200000 -1.6197270000
H  -1.0986810000 -1.8716370000 -2.1304380000
H  -2.8461230000  2.2621460000 -1.0633400000
C   5.2025310000 -0.0136030000  0.3621870000
H   4.5165830000  1.5234400000 -1.0078480000
H   4.3336510000  1.9537660000  0.6849620000
H   6.2793820000  0.0918640000  0.4303510000
H   4.8866150000 -2.1121280000  0.8414920000
H  -4.8517660000 -1.0252000000  1.6429590000
H  -5.4789890000  1.1583380000  1.0052130000
