37
WP4-B published_B3LYP_6-31Gd_unconstrained; parent_sha256=a9a246de3c0cbd3ac73f74cce15085f271efd3a1405f3873457db7017361460c
C   3.4082020000 -2.2831660000  0.1843660000
C  -2.7411740000  0.1831420000 -0.2067390000
C   2.3649030000 -3.0793580000 -0.1908620000
C  -2.2603300000 -1.2266930000 -0.2019450000
C   1.1440660000 -2.4881010000 -0.7371400000
C  -1.0820300000 -1.6164350000 -0.7700480000
C   3.2535320000 -0.8421310000  0.2495610000
C  -1.8921820000  1.2123520000 -0.4432010000
C  -0.1640570000 -2.6722670000 -0.4096830000
C   4.1118510000  0.1537090000  0.5923120000
C  -1.9954190000  2.6393710000 -0.2141890000
C   3.6024330000  1.5275920000  0.6860560000
C  -0.8840660000  3.4324920000 -0.2045200000
C   2.6132830000  1.9712670000 -0.1308780000
C   0.4349720000  2.8970380000 -0.5471230000
C   1.6094900000  2.9882500000  0.1262150000
H  -0.4730170000 -3.4623020000  0.2734200000
H  -0.6327760000 -0.8881420000 -1.4438370000
H   1.3286100000 -1.6378180000 -1.3928390000
C  -3.2199690000 -1.9775310000  0.6026050000
C  -4.1321050000  0.2029720000  0.4033420000
H  -2.9568130000  3.0699090000  0.0591100000
H  -0.9693140000  4.4644850000  0.1322370000
H   0.4326830000  2.1793310000 -1.3665760000
H   2.3974040000  1.3535470000 -1.0030330000
H   3.9354980000  2.1353830000  1.5287680000
H   5.1374030000 -0.0584740000  0.8948560000
H   2.2326160000 -0.5147880000  0.0903620000
H  -0.8939930000  0.8980190000 -0.7192460000
H   4.3388390000 -2.7343170000  0.5244100000
H   2.4370080000 -4.1586500000 -0.0646840000
H   1.7212830000  3.6465480000  0.9872200000
C  -4.2768610000 -1.2081260000  0.9305830000
H  -4.2294090000  0.9588390000  1.1946760000
H  -4.9144200000  0.4331960000 -0.3376930000
H  -5.1493130000 -1.5420530000  1.4829420000
H  -3.1095240000 -3.0289650000  0.8476290000
