39
WP4-B ETKDGv3+MMFF94s; pre_energy=69.599574954380
C  -1.7902314456  0.5528517753 -2.0416535212
C   1.9927772953 -1.4099530881  2.5561443668
C  -1.0152798874 -0.3860654897 -1.2552490954
C   1.8876612887 -2.2134905546  1.4705718142
C   0.1630454608 -0.8971338230 -1.6528280312
C   0.8842593373 -2.0311600287  0.4434291234
C  -2.8598152255  1.1782148312 -1.5189280824
C   1.1575839815 -0.2739034361  2.8756230242
C   1.1480635467 -1.4571054544 -0.7409334896
C  -3.3969914965  2.4911799893 -2.0422314284
C   1.0965581290  0.8017440316  2.0735379884
C  -3.1562537002  3.6492181901 -1.0337220892
C   0.0007387835  1.7484028826  2.0907593279
C  -1.7507375458  3.6113782046 -0.4788655705
C  -0.1770758344  2.6054681320  1.0708660602
C  -1.4753131214  3.1677903609  0.7606892078
C   2.9392938769 -3.2068344320  1.5348725975
C   3.1155311108 -1.8772014650  3.4391043912
C   3.6544758038 -3.0421683895  2.6577051344
H  -1.3586211868  0.8963641641 -2.9787986067
H  -1.3416311492 -0.5148793587 -0.2248987617
H   0.5262491496 -0.7072561950 -2.6609033732
H  -0.1386042085 -2.2098550948  0.7649885506
H  -3.2600238710  0.8592532064 -0.5579153192
H   0.4736356980 -0.4020000055  3.7100389141
H   2.1823705694 -1.2493110957 -1.0128083384
H  -2.9186618816  2.7452082544 -2.9965839749
H  -4.4704134001  2.3946623753 -2.2395254883
H   1.7890658938  0.8760351141  1.2353978707
H  -3.3303115004  4.6115744477 -1.5276721605
H  -3.8899309465  3.5727055945 -0.2212107102
H  -0.7877656920  1.5852870409  2.8214303066
H  -0.9529023898  3.7307992775 -1.2095896746
H   0.5916661479  2.7029926182  0.3058592855
H  -2.2845300102  2.9770774586  1.4622463084
H   3.0984521073 -3.9632297817  0.7812047075
H   3.8808401150 -1.1041676054  3.5600920254
H   2.7523020088 -2.1985511295  4.4201885202
H   4.4950733521 -3.6468267197  2.9622649353
