37
WP4-B published_B3LYP_6-31Gd_unconstrained; parent_sha256=8299f73c8f5c92ee9dc4e4156e493fe80f32b6ddd3ef2cc2aa74332d80456fd8
C  -3.1498390000 -2.5523070000 -0.1312090000
C   2.8556700000  0.5261120000 -0.0152850000
C  -1.7966790000 -3.1055640000 -0.2125910000
C   2.7104280000 -0.9550400000  0.2091930000
C  -0.7620520000 -2.4890340000  0.4192720000
C   1.4120200000 -1.4862770000  0.6224460000
C  -3.2880920000 -1.1985920000 -0.0821140000
C   1.6782580000  1.3790060000  0.0656610000
C   0.6525690000 -2.4839010000  0.1043360000
C  -4.4281950000 -0.3210660000  0.0599330000
C   1.5059220000  2.7126820000  0.2533020000
C  -4.2725590000  1.0364530000 -0.0324370000
C   0.1520430000  3.2633170000  0.3370070000
C  -3.0109290000  1.6085160000 -0.4750810000
C  -0.8825440000  2.6869800000 -0.3310050000
C  -2.2921130000  2.6654720000 -0.0064660000
H   1.0367470000 -3.1410810000 -0.6744840000
H   0.9089040000 -0.8574920000  1.3584890000
H  -1.0394060000 -1.7436410000  1.1643050000
C   3.9072280000 -1.5455230000 -0.0044140000
C   4.1446260000  0.7796680000 -0.3518900000
H   2.3552700000  3.3672510000  0.4469620000
H  -0.0275990000  4.0609370000  1.0586950000
H  -0.6061180000  1.9690290000 -1.1030880000
H  -2.4825890000  0.9955860000 -1.2025480000
H  -5.0878380000  1.6936720000  0.2659990000
H  -5.3988490000 -0.7362560000  0.3251100000
H  -2.3464340000 -0.6665490000 -0.1424840000
H   0.7564580000  0.8077200000  0.0151800000
H  -4.0119960000 -3.2170360000 -0.1830320000
H  -1.6201410000 -3.9466170000 -0.8843880000
H  -2.6892330000  3.3427660000  0.7488880000
C   4.9317400000 -0.5032440000 -0.3714660000
H   4.1336310000 -2.5985730000  0.1188810000
H   4.5566190000  1.7424090000 -0.6335710000
H   5.7748430000 -0.4916710000  0.3380990000
H   5.3827280000 -0.6864030000 -1.3601700000
