39
WP4-B deterministic ETKDG discovery-audit best; attempt=3; prescreen_energy=43.872087401802
C   1.7297718843 -1.0267710271  1.6418205984
C   1.1446020964  0.0252682397  2.2352797946
C  -0.2779465397  0.2364073099  2.0836362069
C  -0.8801726104  1.4300472988  2.1883313991
C  -2.2613225097  1.6596108115  1.8099295343
C  -3.0383108531  2.5399478580  2.4676588688
C  -4.3974615515  2.6063439733  1.8494065861
C  -4.2692286889  1.6471492053  0.7101274728
C  -3.0260418589  1.1334112861  0.6597786164
C  -2.6504661378  0.1498972742 -0.3396400553
C  -1.4447701993  0.0983214800 -0.9292122583
C  -1.0173659917 -0.9833447439 -1.7943279106
C   0.2387100757 -1.2049453220 -2.2214307167
C   1.3796193748 -0.3478995422 -1.9886356544
C   2.6539910472 -0.7415310769 -1.8383716866
C   3.2046588800 -2.1424535758 -1.8129247759
C   3.1363949174 -2.8199411064 -0.4326540541
C   3.7754736602 -2.0297242121  0.6862409804
C   3.1556879419 -1.2496420174  1.5902333868
H   1.1025891899 -1.7232142817  1.0905256216
H   1.7328032051  0.7872235705  2.7380027564
H  -0.8599040735 -0.6268647732  1.7643544605
H  -0.3155661020  2.3046508096  2.5021006394
H  -2.7476529423  3.1144879785  3.3348344579
H  -4.6219020745  3.6157964153  1.4930235458
H  -5.1688763282  2.2835004561  2.5544333676
H  -5.0720964672  1.4271496004  0.0219149664
H  -3.4031826376 -0.6011739649 -0.5685329701
H  -0.7118884181  0.8644207145 -0.6899090750
H  -1.7741435384 -1.7237892714 -2.0491318710
H   0.4280147017 -2.1126254893 -2.7908989331
H   1.1749928068  0.7186469771 -1.9083157595
H   3.3911497051  0.0377846874 -1.6454630181
H   2.6869979801 -2.7707406032 -2.5471112796
H   4.2499238154 -2.1010589984 -2.1455398297
H   3.6517214382 -3.7871177206 -0.4940245233
H   2.0952785060 -3.0696681643 -0.2035485710
H   4.8618188864 -2.0886147687  0.7312552025
H   3.7633495036 -0.7034380825  2.3095226756
