41
WP4-B deterministic ETKDG discovery-audit best; attempt=6; prescreen_energy=174.706735656132
C  -0.8551742503  1.7115209865  0.8385545473
C  -0.5331560232  2.0975766794 -0.3975093907
C   0.9135693172  2.1862150737 -0.5614898190
C   1.5409354371  2.5153642823 -1.7056640984
C   1.0954611728  2.5020604807 -2.9787238401
C   0.1370729916  1.8022006693 -3.6233604373
C  -0.4907853273  0.6894718106 -3.1891638602
C  -1.3835259779  0.0273907958 -3.9517858147
C  -2.0194814090 -1.1461235657 -3.7436320760
C  -1.9311653241 -2.1427408299 -2.8373676931
C  -1.0015225853 -2.2702507140 -1.8816442172
C  -0.9586653709 -3.2405020413 -0.9420886376
C  -0.0681880366 -3.2842834207  0.0835975669
C   0.8832649326 -2.3523922785  0.2523176327
C   1.6820329523 -2.1277587651  1.3160832348
C   2.3179456172 -0.9441829872  1.2281014379
C   3.0522099311 -0.2575792379  2.1201655094
C   3.4128479039  1.0228219977  1.8341812824
C   2.8265505544  1.8399281441  0.9200687051
C   1.5024038405  1.8615341555  0.6205703376
C   0.3938780509  1.4915519994  1.6192559185
H  -1.8558131930  1.5875710695  1.2221111817
H  -1.2542886836  2.3642479967 -1.1562631684
H   2.5656826648  2.8773045870 -1.6074106998
H   1.6915591724  3.1231124616 -3.6556820174
H  -0.0378208959  2.1031607387 -4.6589176166
H  -0.2270514501  0.3185938690 -2.2120283178
H  -1.6692383087  0.5156126459 -4.8884917561
H  -2.7891273828 -1.3432227045 -4.4990574370
H  -2.6818377466 -2.9309251334 -2.9188999867
H  -0.2331978467 -1.5237365537 -1.8895567060
H  -1.7252350164 -4.0155216287 -0.9546991472
H  -0.1919794106 -4.0635639424  0.8336897175
H   0.9821989961 -1.6248569718 -0.5454200434
H   1.6895290931 -2.7461158836  2.2054095496
H   2.1918227112 -0.4265358151  0.2754291862
H   3.4434168972 -0.7559139023  3.0029885146
H   4.3339833734  1.3704893555  2.3032007404
H   3.4826646636  2.5485261763  0.4167718160
H   0.4041354417  0.4637593712  1.9764099895
H   0.4180130119  2.1693286428  2.4802717989
