  41
        -54.96482463
 C         -4.4523534308        0.0409118447        0.5587486808
 C         -3.2711578229       -0.3774556486        0.0546564548
 C         -2.7830278468       -1.7331963517       -0.0286621795
 C         -1.4649339130       -1.9975090625        0.0441310295
 C         -0.8275795334       -3.2699245053       -0.0485313165
 C          0.5198811329       -3.4279082176       -0.0949023281
 C          1.4547453796       -2.3514725905       -0.1010798451
 C          2.8009399065       -2.4692088266       -0.1233104296
 C          3.6797228640       -1.3359722905       -0.1097706311
 C          3.4085513885       -0.1325238427        0.4439743246
 C          2.3176877980        0.1546004849        1.3313200836
 C          1.8789106487        1.3830624046        1.6610954747
 C          2.3183303876        2.6325846933        1.0753741762
 C          2.5355853877        2.8801328596       -0.2236365091
 C          2.2317507869        2.0064888788       -1.3436712192
 C          1.0647992557        1.3879382319       -1.5842933058
 C         -0.1384877484        1.5094483744       -0.8066176276
 C         -1.2157738635        0.7418030736       -1.0308838195
 C         -2.4800520679        0.8092221178       -0.3228637757
 C         -3.1843583085        1.9113370704       -0.0013085212
 C         -4.5031965386        1.5304241018        0.5826811489
 H         -5.2421770463       -0.5793607299        0.9422848451
 H         -3.5149371656       -2.5268559159       -0.1084976716
 H         -0.8149342973       -1.1509522458        0.2038217710
 H         -1.4656969887       -4.1436802467       -0.0896452637
 H          0.9298470553       -4.4294969983       -0.1390349989
 H          1.0591673495       -1.3479972783       -0.1366997063
 H          3.2578429469       -3.4481922447       -0.2072955496
 H          4.6359515240       -1.4716488082       -0.6009301786
 H          4.1118048752        0.6766540191        0.2894056822
 H          1.8800658782       -0.6992275645        1.8349498938
 H          1.1639384456        1.4773803841        2.4705333395
 H          2.4908484573        3.4320569223        1.7888531520
 H          2.9783008934        3.8316825644       -0.5013185549
 H          3.0247617208        1.9114933151       -2.0771077752
 H          0.9899815198        0.7560211922       -2.4613784090
 H         -0.1508292831        2.2431645598       -0.0130233987
 H         -1.1638226530       -0.0214345172       -1.8004532472
 H         -2.8937586975        2.9305609127       -0.1796905244
 H         -4.6324399402        1.9111185746        1.5995415141
 H         -5.3329498642        1.9263263808       -0.0093798767
