43
WP4-B ETKDGv3+MMFF94s; pre_energy=44.271274625025
C  -2.5729179691  0.9278724815  0.5966493233
C  -2.3185059789  2.1112124677 -0.2331084714
C  -1.1297699505  2.3504908770 -1.0228158063
C  -0.5452131427  3.5403948765 -1.2341398825
C   0.6722121005  3.7260949645 -2.0017163012
C   1.7093478858  2.8724314465 -1.9985918410
C   2.9271021821  3.0817118403 -2.7540698618
C   3.9164017533  2.1884061581 -2.9316675391
C   3.9688950657  0.8163467828 -2.4665621610
C   3.0259211644 -0.0965711961 -2.7451442147
C   3.0614607424 -1.4667972011 -2.2843148637
C   2.0364070187 -2.3040400532 -2.5026391735
C   1.9493028824 -3.7265316147 -2.0171558861
C   1.1098995451 -3.9038434085 -0.7371671357
C  -0.1698966605 -3.1082728507 -0.7416182478
C  -0.4080782994 -2.1247252496  0.1392971773
C  -1.5122707346 -1.2022416807  0.0181680052
C  -1.6516052043 -0.1532705253  0.8424139319
C  -3.8187690084  0.9956027586  1.0931639972
C  -3.4211269556  2.8817300204 -0.2200232566
C  -4.4824385141  2.2568646283  0.6342682999
H  -0.6734974710  1.4484824092 -1.4278236758
H  -0.9874013006  4.4487542847 -0.8313342243
H   0.7192620160  4.6470300997 -2.5789412200
H   1.6588953159  1.9703216502 -1.3925221620
H   3.0511463969  4.0671807783 -3.2007955255
H   4.8037924400  2.5088132560 -3.4763282473
H   4.8576077970  0.5428802150 -1.9028824369
H   2.1608921839  0.1979580943 -3.3383615017
H   3.9303107316 -1.7970729803 -1.7208231531
H   1.1651848577 -1.9495886144 -3.0523966362
H   2.9523187660 -4.1356952811 -1.8441515857
H   1.5113932350 -4.3293269322 -2.8230196252
H   0.8683780178 -4.9657935376 -0.6107858117
H   1.7277834488 -3.6232164246  0.1257373931
H  -0.8656572499 -3.3030691925 -1.5543740325
H   0.3129246646 -1.9303780652  0.9317650003
H  -2.1779740027 -1.3151196754 -0.8348933623
H  -0.9691701021  0.0018958718  1.6747806753
H  -4.2842225506  0.2619924933  1.7341883948
H  -3.5582813311  3.8015907210 -0.7682395305
H  -4.7397242712  2.9006995822  1.4802350781
H  -5.3805967999  2.0385971985  0.0492384566
