41
WP4-B ETKDGv3+MMFF94s; pre_energy=167.827400736309
C  -0.3216524649  1.9921952094  1.8983311717
C   0.7776732876  2.4942983774  1.2579154917
C   1.4412579433  1.8720820333  0.2633489932
C   2.5133087496  2.2608984105 -0.4474734783
C   3.0688548220  1.5481074709 -1.4565906083
C   2.6367566283  0.4818463157 -2.1700906744
C   1.3651690693  0.0603430635 -2.2801221533
C   0.8758106156 -1.0770701875 -2.7992506862
C   1.5248558685 -2.1307969063 -3.3191038262
C   0.9615090615 -3.3013425924 -3.6900521285
C  -0.2302047502 -3.8903135002 -3.4480888979
C  -1.1798384715 -3.7112322318 -2.5055320000
C  -0.9907373150 -3.0498244524 -1.3531812613
C  -1.9765251208 -2.6653440514 -0.5162695023
C  -1.7701847506 -1.8128663842  0.5166789633
C  -0.5460772263 -1.4800023031  0.9595334555
C  -0.1555557815 -0.3383492501  1.5375939745
C  -0.8707263006  0.7540807120  1.8489915760
C  -0.9809495063  3.1253502265  2.6654264503
C   0.9952221257  3.8606926084  1.7000680061
C  -0.0075116134  4.2500125336  2.4972135673
H   1.0514138901  0.9097205292 -0.0154513320
H   3.0408688438  3.1622432077 -0.1386142076
H   4.0799335329  1.8752625019 -1.7175294037
H   3.3999765116 -0.0438972093 -2.7434827696
H   0.5767467263  0.7115900765 -1.9007184916
H  -0.2128316155 -1.1279581971 -2.7562037980
H   2.5887375211 -2.0255161759 -3.5294888601
H   1.6032576636 -3.8860872021 -4.3578614422
H  -0.4699436080 -4.6957042995 -4.1499744291
H  -2.1459895564 -4.1863638046 -2.6777673030
H   0.0293989681 -2.7513607304 -1.1424589956
H  -3.0097067641 -2.8916162808 -0.7788085945
H  -2.6487983480 -1.3044237030  0.9099590227
H   0.3005216780 -2.1185655490  0.7027336644
H   0.9316320151 -0.2721219180  1.6428138858
H  -1.9309993375  0.6546357956  2.0719246156
H  -1.0887766690  2.8745292290  3.7259465733
H  -1.9557353235  3.3878278233  2.2414757731
H   1.8224517801  4.4836615050  1.3963151247
H  -0.1117915923  5.2251966027  2.9475505233
