43
WP4-B published_B3LYP_6-31Gd_unconstrained; parent_sha256=b2c0f82ac1a277a19bb12f85a1b510713cdd63dd833e61742e9b720313fb5e6d
C   2.0120230000  2.8365650000  0.1065020000
C   0.8211300000  3.6563950000 -0.0302830000
C  -0.4430370000  3.1570180000  0.0594590000
C  -1.6815970000  3.8222900000 -0.2243910000
C  -2.8981410000  3.1921340000 -0.2600180000
C  -3.1092330000  1.7994750000  0.0350030000
C  -4.2524400000  1.0888900000 -0.1408400000
C  -4.3695190000 -0.3413420000  0.1346500000
C  -3.3369280000 -1.2055820000  0.1998440000
C  -3.4010590000 -2.6382110000  0.6518110000
C  -2.3738380000 -3.5752450000 -0.0270240000
C  -0.9482720000 -3.1093160000  0.1552630000
C   0.0844700000 -3.3825870000 -0.6650610000
C   1.4275220000 -2.8191810000 -0.5409120000
C   1.6502730000 -1.5287490000 -0.1785760000
C   2.9041630000 -0.8450680000 -0.0246200000
C   3.0657330000  0.5303670000  0.0917160000
C   1.9935690000  1.4806670000 -0.0194790000
H   0.9650110000  4.7168120000 -0.2372480000
H  -0.5243110000  2.1123920000  0.3410670000
H  -1.6379480000  4.8789960000 -0.4846790000
H  -3.7699500000  3.7712100000 -0.5619460000
H  -2.2624530000  1.2547110000  0.4422170000
H  -5.1494310000  1.6014600000 -0.4892630000
H  -5.3784840000 -0.7177160000  0.3114870000
H  -2.3401030000 -0.8400760000 -0.0461200000
H  -4.4158950000 -3.0361820000  0.5244360000
H  -2.6020870000 -3.6794590000 -1.0955960000
H  -0.7497020000 -2.5087250000  1.0445530000
H  -0.0777830000 -4.0649140000 -1.5028290000
H   2.2658780000 -3.4557970000 -0.8248460000
H   0.7600930000 -0.9240100000 -0.0187820000
H   1.0381370000  1.0389750000 -0.2835220000
C   4.4942380000  0.8170090000  0.2822660000
H   4.9033970000  1.8144380000  0.4029230000
C   5.1982760000 -0.3309100000  0.2658540000
H   6.2726120000 -0.4311140000  0.3717210000
C   4.2655320000 -1.4970940000  0.0658090000
H   4.3206620000 -2.2186900000  0.8941330000
H   4.5133420000 -2.0649130000 -0.8444800000
H   2.9539150000  3.3535320000  0.2842910000
H  -2.5011390000 -4.5756720000  0.4143770000
H  -3.2009540000 -2.6704010000  1.7362650000
