43
WP4-B published_B3LYP_6-31Gd_unconstrained; parent_sha256=b558edfc792821c6e619a53184c27502ab58b761aa7938bdbad5ed35bde9cb77
C  -2.9135290000 -1.0387480000  0.0630460000
C  -3.2051160000  0.4288580000  0.0905540000
C  -2.1427580000  1.4073170000 -0.0793210000
C  -2.1570530000  2.7429570000  0.1528960000
C  -0.9883820000  3.5948390000 -0.0171740000
C   0.2854940000  3.1231210000  0.0289800000
C   1.5003790000  3.8394120000 -0.2485370000
C   2.7426690000  3.2660960000 -0.2683500000
C   3.0139810000  1.8876770000  0.0473360000
C   4.1889950000  1.2294430000 -0.1141840000
C   4.3769960000 -0.1915450000  0.1742930000
C   3.3843760000 -1.0942060000  0.2986280000
C   3.5264480000 -2.5286640000  0.7206190000
C   2.5765910000 -3.5046330000 -0.0201290000
C   1.1242870000 -3.1277120000  0.1196430000
C   0.2342950000 -3.0816640000 -0.8863240000
C  -1.1512570000 -2.6101320000 -0.7936980000
C  -1.5526820000 -1.5712480000 -0.0330860000
H  -1.2154130000  0.9862500000 -0.4613610000
H  -3.0802640000  3.2246150000  0.4748930000
H  -1.1624950000  4.6575410000 -0.1871260000
H   0.3967470000  2.0728510000  0.2799190000
H   1.4118720000  4.8935930000 -0.5076180000
H   3.5908870000  3.8815890000 -0.5655860000
H   2.1886110000  1.3137940000  0.4582500000
H   5.0597260000  1.7784890000 -0.4732730000
H   5.4079460000 -0.5261030000  0.2989970000
H   2.3605050000 -0.7705560000  0.1143780000
H   3.2991450000 -2.6020740000  1.7976130000
H   2.7424750000 -4.5081650000  0.4008620000
H   0.7881900000 -2.8732890000  1.1270070000
H   0.5566490000 -3.4068900000 -1.8777680000
H  -1.8785940000 -3.0883350000 -1.4502120000
H  -0.7888440000 -1.0289890000  0.5249170000
C  -4.0811770000 -1.7153240000  0.1700530000
H  -4.1903390000 -2.7923070000  0.2286240000
C  -4.5474530000  0.5944580000  0.2171990000
H  -5.0810860000  1.5383450000  0.2193070000
C  -5.2256200000 -0.7454520000  0.2772980000
H  -5.9582240000 -0.8696220000 -0.5367630000
H  -5.7961560000 -0.8872710000  1.2094870000
H   4.5654570000 -2.8637280000  0.6091010000
H   2.8463060000 -3.5588360000 -1.0821110000
