41
WP4-B published_B3LYP_6-31Gd_unconstrained; parent_sha256=76f163c622cc5d74ef4608dd1d72d92cc5051bb186cf0f497540c52d0b0fc527
C  -3.0981250000 -0.7481220000  0.0477870000
C  -3.0981250000  0.7481220000 -0.0477860000
C  -1.8709020000  1.5268730000 -0.1472560000
C  -1.6969980000  2.8449150000  0.1218680000
C  -0.4259750000  3.5483120000  0.0460500000
C   0.7897580000  2.9381030000  0.0754390000
C   2.0751860000  3.5656690000 -0.0528870000
C   3.2750910000  2.8996910000 -0.0636890000
C   3.4094520000  1.4806710000  0.0823950000
C   4.5375980000  0.7240640000 -0.0378800000
C   4.5375980000 -0.7240640000  0.0378800000
C   3.4094520000 -1.4806710000 -0.0823950000
C   3.2750910000 -2.8996910000  0.0636890000
C   2.0751860000 -3.5656690000  0.0528870000
C   0.7897580000 -2.9381030000 -0.0754390000
C  -0.4259750000 -3.5483120000 -0.0460500000
C  -1.6969980000 -2.8449150000 -0.1218690000
C  -1.8709020000 -1.5268730000  0.1472560000
H  -1.0010340000  0.9676190000 -0.4855970000
H  -2.5606150000  3.4383410000  0.4213600000
H  -0.4694070000  4.6358460000 -0.0150200000
H   0.7860040000  1.8600920000  0.2063450000
H   2.0862040000  4.6470810000 -0.1823990000
H   4.1848210000  3.4782360000 -0.2183370000
H   2.4953030000  0.9444140000  0.3145390000
H   5.4964370000  1.2174930000 -0.1953500000
H   5.4964360000 -1.2174930000  0.1953500000
H   2.4953030000 -0.9444140000 -0.3145390000
H   4.1848210000 -3.4782370000  0.2183370000
H   2.0862030000 -4.6470810000  0.1823990000
H   0.7860040000 -1.8600920000 -0.2063450000
H  -0.4694070000 -4.6358460000  0.0150200000
H  -2.5606150000 -3.4383410000 -0.4213610000
H  -1.0010350000 -0.9676190000  0.4855980000
C  -4.3875370000 -1.1749230000  0.0752420000
H  -4.7207420000 -2.2002930000  0.1880720000
C  -4.3875370000  1.1749230000 -0.0752410000
H  -4.7207420000  2.2002930000 -0.1880720000
C  -5.3184900000  0.0000000000 -0.0000000000
H  -5.9867970000 -0.0503950000 -0.8752200000
H  -5.9867970000  0.0503950000  0.8752200000
