43
WP4-B ETKDGv3+MMFF94s; pre_energy=56.683140711927
C  -0.5138891679 -2.7269738610  0.1440251887
C  -1.7458717661 -2.1856830320  0.6846373801
C  -2.1274806090 -0.9149289498  0.4755227626
C  -3.3370088145 -0.3233615295  1.0060667056
C  -3.6959513810  0.9694386733  0.9068641613
C  -2.9617569296  2.0496474133  0.2756965089
C  -1.6915438728  2.3659325492  0.5709898469
C  -0.9446244145  3.4114193706 -0.0923774150
C   0.3736759611  3.5632897523  0.1041372877
C   1.2478164939  4.5711631925 -0.5923536290
C   1.9894802538  4.0543940418 -1.8425141881
C   2.2805059081  2.5806213628 -1.8399579763
C   3.4596741502  2.0111942893 -1.5446489880
C   3.6547468076  0.5741222911 -1.4911706062
C   2.7615885524 -0.2566364752 -0.9287521951
C   2.8501181142 -1.6967109980 -0.8293962889
C   1.9148775108 -2.5359028147 -0.3218143000
C   0.6695374108 -2.1071751959  0.2782747604
C   2.4130857272 -3.8957048537 -0.4357092708
C   3.6191271085 -3.9002213346 -1.0181772346
C   4.0265870583 -2.4941215642 -1.3371597845
H  -0.5982659392 -3.6651662609 -0.3982260673
H  -2.3659789210 -2.8750728750  1.2514652985
H  -1.4956936733 -0.2742140667 -0.1364923640
H  -4.0169916347 -0.9997203550  1.5218348924
H  -4.6631818084  1.2642880774  1.3122715493
H  -3.5195115114  2.6270010370 -0.4582209723
H  -1.1614196762  1.7897744859  1.3282295036
H  -1.4707653208  4.0496130560 -0.7979907153
H   0.8960350475  2.8996804018  0.7925711274
H   1.9900308689  4.9192291630  0.1379808843
H   0.6656574206  5.4601091875 -0.8658186244
H   1.3770081736  4.2663990194 -2.7285178739
H   2.9125877740  4.6323007570 -1.9742344415
H   1.4248309296  1.9497483481 -2.0807516990
H   4.3315525649  2.6236009743 -1.3277042774
H   4.5895580654  0.2066168141 -1.9047302189
H   1.8565404160  0.1831508838 -0.5138580700
H   0.7157853316 -1.1784873277  0.8441304759
H   1.8756338594 -4.7647385423 -0.0871850334
H   4.2170231860 -4.7749114875 -1.2230453607
H   4.1658471308 -2.3684383219 -2.4156956105
H   4.9489007939 -2.2311412026 -0.8093215816
