41
WP4-B deterministic ETKDG discovery-audit best; attempt=25; prescreen_energy=57.049884589080
C  -2.8746693558 -3.7049259305  0.0664344000
C  -2.2534425892 -2.5531274621 -0.2472691528
C  -1.0530430938 -2.5363961422 -1.0508877194
C  -0.0057251282 -1.7407410966 -0.7905362067
C   1.1967452119 -1.7217047824 -1.5938402947
C   2.2892652525 -0.9772046214 -1.3601445843
C   2.5069774665 -0.1196313901 -0.2153098310
C   3.3581784601  0.9141478439 -0.2408005883
C   3.6308540971  1.8294482403  0.8441858463
C   2.8502174737  2.2896948705  1.8347210273
C   1.4858082594  1.9916679662  2.2152915985
C   0.3379165295  2.1165238661  1.5301169509
C   0.1683349100  2.4844012648  0.1448548548
C  -0.9670081703  2.8795387541 -0.4524176146
C  -2.2458591701  3.1714861715  0.1514809143
C  -3.1402139485  2.3717161278  0.7495245309
C  -3.1371202512  0.9469651954  0.9910208274
C  -2.8203706195 -0.0097984263  0.1044224241
C  -3.0085540315 -1.4327117244  0.3330529953
C  -4.0642987013 -1.9453028832  0.9974999038
C  -4.0740183091 -3.4370461694  0.9135325528
H  -2.5545942457 -4.6953000108 -0.2219144457
H  -1.0176045439 -3.2412040688 -1.8779772101
H  -0.0582373034 -1.0621955331  0.0577065512
H   1.1871003871 -2.3357344444 -2.4930980546
H   3.0923043361 -1.0121411792 -2.0948625685
H   1.9370263926 -0.3275737327  0.6852524513
H   3.9319266974  1.1113933412 -1.1453095656
H   4.6470248805  2.2262531207  0.8080157946
H   3.3268352937  2.9739630488  2.5396199094
H   1.3930681088  1.7202343254  3.2680215492
H  -0.5799715336  1.9114624702  2.0779532330
H   1.0572470446  2.4401175017 -0.4786306956
H  -0.9083573615  3.1451892542 -1.5077054120
H  -2.5165009897  4.2246590798  0.0607488837
H  -4.0338230886  2.8575560458  1.1452771701
H  -3.5375845243  0.6640965381  1.9631208609
H  -2.4275794165  0.2605390192 -0.8732428271
H  -4.8466948074 -1.3794462266  1.4808770198
H  -3.9744614245 -3.8922773647  1.9029754364
H  -4.9862365446 -3.7988005156  0.4303501325
