  43
        -56.00818225
 C         -1.8215228118       -2.3096978806       -0.2120395278
 C         -1.2859041727       -3.5462336815       -0.1103427140
 C         -0.0265559337       -3.9216768883        0.4584048435
 C          1.1135204768       -3.2109978725        0.6230974551
 C          1.4326788557       -1.8899005417        0.1761629682
 C          2.6485306576       -1.3552576728        0.3957181843
 C          3.1433149899       -0.0873343742       -0.0993084864
 C          4.3820715308        0.0534791013       -0.6204338540
 C          4.5802612460        1.4299241262       -1.1499315173
 C          3.2833146216        2.0790918600       -0.8218064545
 C          2.4540527171        1.2114283434       -0.1956572460
 C          1.1859418419        1.6212225590        0.3593650732
 C          0.4861383702        0.9898273960        1.3143793507
 C         -0.7325899683        1.4539173710        1.9399507715
 C         -1.6856638450        2.2558545639        1.4541948674
 C         -1.7731200917        2.8814424476        0.0991005837
 C         -3.2103617921        2.9029587695       -0.4276018723
 C         -3.7684003038        1.5564871025       -0.7611650500
 C         -3.1412266091        0.3882537751       -0.5965454862
 C         -3.7087481894       -0.8795369600       -0.9505576183
 C         -3.1078343035       -2.0798316716       -0.7875190390
 H         -1.2889540365       -1.4621045246        0.1892942045
 H         -1.8930347937       -4.3807522643       -0.4470402778
 H          0.0099598483       -4.9562638916        0.7834864101
 H          1.9355203155       -3.7233833418        1.1124634772
 H          0.7022421825       -1.3408733316       -0.3980760383
 H          3.3896932189       -1.9560862912        0.9129133557
 H          5.1260568248       -0.7185574594       -0.7031433544
 H          4.7835397277        1.4237490427       -2.2244289723
 H          5.4208812949        1.9421240732       -0.6734965903
 H          3.0783856801        3.1141509631       -1.0294135833
 H          0.8668799760        2.5990760839        0.0250512020
 H          0.8747600193        0.0642921033        1.7187341655
 H         -0.8876260907        1.0527148836        2.9354235860
 H         -2.5305443350        2.4763470998        2.0956007977
 H         -1.1375385250        2.3565850740       -0.6151506163
 H         -1.4174790727        3.9159569947        0.1658470383
 H         -3.2528844559        3.5235630065       -1.3299452394
 H         -3.8654771210        3.3811808091        0.3094837903
 H         -4.7689467101        1.5713586973       -1.1781410847
 H         -2.1488592838        0.3744899776       -0.1774798541
 H         -4.6964440882       -0.8513782919       -1.3947688106
 H         -3.6373252626       -2.9655290054       -1.1194591959
