43
WP4-B deterministic ETKDG discovery-audit best; attempt=31; prescreen_energy=48.893249811237
C   0.1366834425 -0.2781325001 -2.6654478358
C   1.4163259079  0.0358465635 -2.9241275447
C   2.5775050235 -0.3919695471 -2.1766545029
C   2.8160183276 -0.3479541371 -0.8571981532
C   1.9348845791  0.1216937375  0.1876930192
C   2.2757362089  0.0704111137  1.4849777861
C   1.3922678266  0.4502345240  2.5595605182
C   1.6228710951  1.5515875777  3.2971625265
C   0.5469693014  1.7301662540  4.3157517149
C  -0.3336306855  0.5539861484  4.0421848218
C   0.1588305058 -0.1940823107  3.0345021751
C  -0.5351686613 -1.3867439261  2.5853136519
C  -0.0767251039 -2.3035281251  1.7194002808
C  -0.7885030285 -3.4922386837  1.3071394202
C  -2.0450079280 -3.5861261132  0.8444018726
C  -3.0538708938 -2.4852464663  0.6553047830
C  -3.6783476019 -2.4677624464 -0.7447947622
C  -2.7823241606 -1.8630949868 -1.7932210219
C  -2.9965737416 -0.6440275543 -2.3102686556
C  -2.2572484004 -0.0293627917 -3.3868974008
C  -0.9359755813  0.1442317379 -3.5409183584
H  -0.1171326632 -0.8732877818 -1.7928239484
H   1.6591230149  0.6077646022 -3.8189007704
H   3.3856879764 -0.7551286401 -2.8127228067
H   3.7884972710 -0.7113712013 -0.5246396227
H   0.9550765562  0.5002550324 -0.0924676731
H   3.2525813202 -0.2937986677  1.7937672358
H   2.4521022269  2.2323642137  3.1725249333
H   0.0094976887  2.6706193889  4.1640655371
H   0.9513951018  1.6951682656  5.3313644657
H  -1.2376085336  0.3515333690  4.5977949293
H  -1.5245702676 -1.5349176744  3.0154188222
H   0.9269758793 -2.2319675744  1.3128823576
H  -0.1882811347 -4.4014898476  1.3428758249
H  -2.3971321429 -4.5816826430  0.5754147035
H  -2.6398709197 -1.4965712760  0.8747653294
H  -3.8559871118 -2.6572653150  1.3841877444
H  -4.6162174305 -1.8994224189 -0.6913798095
H  -3.9586212983 -3.4805652676 -1.0595917505
H  -1.9582590028 -2.4773928954 -2.1481231834
H  -3.8509579638 -0.0623675748 -1.9662576626
H  -2.9022095872  0.4038030805 -4.1526342084
H  -0.6229847720  0.6811044294 -4.4369314254
