41
WP4-B published_B3LYP_6-31Gd_unconstrained; parent_sha256=beca1a9a400ed804aafe6a33abd005dc1613c312d89fe837f3de6845b4efc940
C   1.6681530000 -2.5691930000  0.0000000000
C   2.6602050000 -1.5316700000  0.0000000000
C   2.3778780000 -0.1619020000  0.0000000000
C   3.2473510000  0.9284860000  0.0000000000
C   2.8357260000  2.2778630000  0.0000000000
C   1.5052480000  2.6991150000  0.0000000000
C   1.0074030000  4.0017290000  0.0000000000
C  -0.3653750000  4.3316980000  0.0000000000
C  -1.3994350000  3.3971460000  0.0000000000
C  -2.7778970000  3.6216600000  0.0000000000
C  -3.7501630000  2.6017280000  0.0000000000
C  -3.4572090000  1.2358500000  0.0000000000
C  -4.3358950000  0.1548060000  0.0000000000
C  -3.9311870000 -1.1991880000  0.0000000000
C  -2.6056260000 -1.6273700000  0.0000000000
C  -2.1171100000 -2.9371590000  0.0000000000
C  -0.7531010000 -3.2825640000  0.0000000000
C   0.2968460000 -2.3563160000  0.0000000000
H   1.3206570000  0.0803330000  0.0000000000
H   4.3196280000  0.7408040000  0.0000000000
H   3.6154100000  3.0386000000  0.0000000000
H   0.7617760000  1.9094060000  0.0000000000
H   1.7212620000  4.8245780000  0.0000000000
H  -0.6270100000  5.3892250000  0.0000000000
H  -1.0924160000  2.3571820000  0.0000000000
H  -3.1307430000  4.6523310000  0.0000000000
H  -4.7966550000  2.9040700000  0.0000000000
H  -2.4028230000  0.9825420000  0.0000000000
H  -5.4059400000  0.3587620000  0.0000000000
H  -4.7150420000 -1.9558620000  0.0000000000
H  -1.8547910000 -0.8447730000  0.0000000000
H  -2.8398710000 -3.7523870000  0.0000000000
H  -0.5091210000 -4.3435690000  0.0000000000
H  -0.0000000000 -1.3126030000  0.0000000000
C   2.3834770000 -3.9075470000  0.0000000000
H   2.1223130000 -4.5162180000  0.8784690000
C   3.9748310000 -2.1785650000  0.0000000000
H   4.9152540000 -1.6381800000  0.0000000000
C   3.8402780000 -3.5182040000  0.0000000000
H   2.1223130000 -4.5162180000 -0.8784690000
H   4.6494180000 -4.2404290000  0.0000000000
