41
WP4-B ETKDGv3+MMFF94s; pre_energy=55.780436692772
C  -1.6080597769 -1.3285916350  1.3283343272
C  -0.6905445130 -1.3267302186  2.4777972648
C   0.6607092718 -0.8089882059  2.5417363688
C   1.1080126603 -0.0132178131  3.5257750264
C   2.4754437697  0.4162545920  3.7220915698
C   3.3994400350  0.8149210668  2.8350889425
C   3.2907553791  0.9457241106  1.4024961881
C   2.4948098209  1.8244319309  0.7741991387
C   2.5024954647  1.9984852460 -0.6631093907
C   2.2596866942  0.9998761900 -1.5244584157
C   2.3212345489  1.1361551562 -2.9662944005
C   1.8987555541  0.2112427775 -3.8464484501
C   1.2077897527 -1.0118372154 -3.4932957778
C  -0.0561440573 -1.0766668129 -3.0425219112
C  -0.9827170768  0.0366889649 -3.0144405983
C  -1.9815388968  0.2241874841 -2.1394644266
C  -2.2660934267 -0.5507269986 -0.9527086615
C  -1.3821169282 -0.6849531942  0.0500826307
C  -2.7216988611 -1.9991598135  1.6823997902
C  -1.2714243099 -1.9919240398  3.4943522396
C  -2.6232276167 -2.4819585369  3.0935985772
H   1.3205969020 -1.1246655706  1.7379012346
H   0.4259835272  0.2807199470  4.3225791907
H   2.7746529176  0.4086520923  4.7711452769
H   4.3939716527  1.0466129369  3.2168927651
H   3.9839336301  0.3318410396  0.8299085849
H   1.8561395707  2.4986994034  1.3400488099
H   2.6972507868  3.0075875899 -1.0174328765
H   2.0202095877  0.0132473122 -1.1319715053
H   2.7828583501  2.0428219474 -3.3521696698
H   2.0560376430  0.3737024106 -4.9101450717
H   1.8023352313 -1.9209462549 -3.5475925107
H  -0.4423571389 -2.0367454383 -2.7054068722
H  -0.8627336720  0.7730823387 -3.8078717665
H  -2.6465941074  1.0731189582 -2.2914781243
H  -3.2797444199 -0.9306963924 -0.8728173590
H  -0.4003669584 -0.2251018328 -0.0588930574
H  -3.5904729200 -2.1716902860  1.0662863430
H  -0.8260940463 -2.1865521112  4.4587770810
H  -2.6797185650 -3.5732050890  3.1425086848
H  -3.4060224597 -2.0431300746  3.7188662955
