43
WP4-B deterministic ETKDG discovery-audit best; attempt=20; prescreen_energy=61.062021671698
C   4.2378982303  2.0726145570 -0.1229490929
C   3.1439756070  2.8150179015 -0.3542899610
C   1.8122191685  2.5829705792  0.1547789241
C   0.7671170377  3.3731127002 -0.1429817559
C  -0.6020073919  3.0703563263  0.2248840107
C  -1.1306334721  1.8594752608 -0.0056416083
C  -2.4916420340  1.4317072979  0.2345766337
C  -3.0449976471  0.3429504766 -0.3509452205
C  -2.4417689756 -0.4660280624 -1.3836293298
C  -2.5879557124 -1.7888069600 -1.5389066476
C  -1.8701283120 -2.5570792895 -2.5339804026
C  -0.5414484042 -2.5794725197 -2.7450146485
C   0.5396900695 -1.8099608030 -2.0224346326
C   1.4738756353 -2.7409072329 -1.2418801561
C   2.4907925560 -2.0823211608 -0.3418403266
C   2.8977247645 -0.8008228425 -0.3426120330
C   3.8440679330 -0.3070661026  0.6366496390
C   4.3927729631  0.9146149923  0.7288801357
C  -4.4141906602  0.0872468197  0.2231073462
C  -4.5488608889  1.2024019157  1.2163761243
C  -3.4355693535  1.9484214143  1.2093301128
H   5.1746721564  2.4135250996 -0.5644810741
H   3.2613284334  3.6826366032 -1.0029560926
H   1.6597495828  1.6945334857  0.7638003895
H   0.9019233142  4.2829479370 -0.7235947445
H  -1.2036170650  3.8894835446  0.6070257005
H  -0.4795223208  1.0956029395 -0.4277578151
H  -1.7575821384  0.0619299135 -2.0470027846
H  -3.2647977569 -2.3560136220 -0.9053276075
H  -2.4984231191 -3.2173501392 -3.1312709731
H  -0.1765841459 -3.2384714230 -3.5327622183
H   0.1186982330 -1.0798714424 -1.3284620458
H   1.1112666889 -1.2434917992 -2.7676147931
H   0.8591761045 -3.3906297708 -0.6040835204
H   2.0064052917 -3.4032924877 -1.9357784829
H   2.9130945774 -2.7634271300  0.3970967625
H   2.5180127924 -0.0955190960 -1.0760433373
H   4.1534467657 -1.0309926005  1.3914311225
H   5.1236170178  1.0674552155  1.5241414591
H  -4.4712322936 -0.8827305927  0.7268473932
H  -5.1912101117  0.1540428253 -0.5448748767
H  -5.4084255350  1.3598682208  1.8496035846
H  -3.2443713399  2.8026594217  1.8409014636
