69
WP4-B ETKDGv3+MMFF94s; pre_energy=158.741561684704
C  -2.5393452482 -0.0799098217 -5.5592823778
C   4.0812623658 -4.6066933719 -2.0888301790
C  -3.2977608896  0.9256680907 -5.0721245687
C  -3.1641227631  1.5089560952 -3.8648037769
C  -3.9719499355  2.5050542142 -3.4541606530
C  -3.8007580772  3.0325258241 -2.2250755888
C  -4.5845841544  4.0280523568 -1.7739087508
C  -4.5175453912  4.6209494882 -0.5655996785
C  -3.6634467612  4.3297411910  0.4349014032
C  -3.7136875359  5.0044267907  1.6001674939
C  -2.9354155386  4.8139912600  2.6840215678
C  -1.9506946241  3.9061715502  2.8172513056
C  -1.2428754572  3.8035374272  3.9601302506
C  -0.2423788426  2.9336690059  4.2100337097
C   0.2288834108  2.0147730021  3.3502875495
C   1.2289553802  1.1648328485  3.6592502694
C   1.6117189858  0.2921051902  2.7125884514
C   2.5597567703 -0.6543983074  2.7524863825
C   3.3922171484 -1.0009309671  3.7529819827
C   4.3218162549 -1.9873434119  3.6968115989
C   4.5525864876 -2.7606159506  2.6175123303
C   5.4227964140 -3.7746800416  2.4357210460
C   5.5641440574 -4.4995053368  1.2779673188
C  -1.5014695341 -0.6473887150 -4.9214766296
C  -0.7823764747 -1.6724482697 -5.4222432602
C   0.2257040907 -2.1404321112 -4.6624978623
C   1.0130042117 -3.1855207923 -4.9827073666
C   2.0094455986 -3.6703327989 -4.2036984215
C   2.3844346308 -3.1234481015 -3.0361728113
C   3.2761733205 -3.5293932987 -2.1253850726
C   6.2784555636 -4.2406361976  3.3660872878
C   7.0699420084 -5.3755833223  2.8192142791
C   6.5053642285 -5.4477755428  1.4451174349
C   4.8675956870 -4.9424969263 -1.0337260930
C   4.8642982176 -4.2908397427  0.1467162602
H  -2.8061480907 -0.4499533416 -6.5503972612
H   4.1130592117 -5.2708004335 -2.9515041108
H  -4.0951712365  1.2761762776 -5.7302371187
H  -2.3906668733  1.1755294679 -3.1781817928
H  -4.7594662056  2.8762215410 -4.1082839250
H  -3.0108551767  2.6340632918 -1.5929433053
H  -5.3631474824  4.4101976289 -2.4377845302
H  -5.2488263358  5.4160669365 -0.4032326977
H  -2.9321215103  3.5414208074  0.3021250186
H  -4.4600253055  5.7952870856  1.7047879734
H  -3.1467838976  5.4731752944  3.5287742611
H  -1.7308140777  3.2460637144  1.9874126783
H  -1.4871695116  4.4790741692  4.7825885398
H   0.2100724400  2.9965131573  5.2012419408
H  -0.2096022948  1.9436107970  2.3577604569
H   1.7026373474  1.1866115857  4.6364250149
H   1.0886035596  0.3334067518  1.7517165175
H   2.6105722904 -1.1891295604  1.8068941496
H   3.3279594634 -0.4617592183  4.6976358269
H   4.9081881229 -2.1481438111  4.6000395992
H   3.9357042587 -2.5320470355  1.7658194622
H  -1.2199694615 -0.2708328747 -3.9410579189
H  -1.0140030088 -2.1119549671 -6.3891221119
H   0.3789319833 -1.6320513483 -3.7152256636
H   0.8268991563 -3.7112207180 -5.9199717202
H   2.5173966529 -4.5662376461 -4.5575625745
H   1.9027970369 -2.2013971150 -2.7157297725
H   3.2957841391 -2.8290249474 -1.2933108739
H   6.4003030439 -3.8791870774  4.3757208500
H   6.8894942495 -6.2982361810  3.3776562242
H   8.1398162600 -5.1501234775  2.8040224110
H   6.8369329147 -6.1687865737  0.7135741768
H   5.5041457907 -5.8168003549 -1.1577942862
H   4.1678012168 -3.4741383765  0.2051296853
