71
WP4-B ETKDGv3+MMFF94s; pre_energy=77.089339616215
C   6.8550739471 -2.9654425900  2.0818044346
C   1.1183570662  1.4340485920 -4.6571470739
C   6.7526849835 -2.2823142353  3.4545652855
C   5.5961219453 -2.7692213855  4.2899212097
C   4.4713450156 -2.0538767016  4.4395077548
C   3.3102509368 -2.5068291034  5.1715098522
C   2.1394203935 -1.8600593530  5.0750682342
C   0.9107354359 -2.2768166152  5.7160178836
C  -0.2631607665 -1.7412449374  5.3495510778
C  -1.5530665766 -2.0927399116  5.9063027446
C  -2.7379287061 -1.8769893785  5.3051146974
C  -2.9032310882 -1.4092884539  3.9446821736
C  -4.0559891401 -1.0033083786  3.3908817647
C  -4.0879452574 -0.5960163352  2.0030204249
C  -5.1355088854 -0.0425140764  1.3728119705
C  -5.0957510985  0.3253912580 -0.0313028666
C  -4.0365586505  0.9127122687 -0.6106843027
C  -3.8897534591  1.1831240818 -2.0194944332
C  -4.7452808835  1.8765388876 -2.7855984698
C  -4.5235238737  2.1375608575 -4.1960491687
C  -3.3229501146  2.4371374297 -4.7191361036
C  -3.0321449666  2.6769227772 -6.1150401191
C  -1.8142166889  2.7657040503 -6.7029320760
C  -0.5165003097  2.6092914746 -6.0728630027
C  -0.1729181899  1.5685866781 -5.2967220163
C   5.6258331928 -2.7758837805  1.2319608545
C   5.5292076551 -1.9164102641  0.2058383155
C   4.3067978025 -1.7577541623 -0.5511897117
C   4.1419505677 -0.8379990473 -1.5145784964
C   2.8945297689 -0.6864910746 -2.2340383048
C   2.6695472613  0.2819186515 -3.1357522983
C   1.4006808877  0.4250799208 -3.8182309094
C  -4.1122243679  2.9173350652 -7.1442892003
C  -3.3180885831  3.2004741367 -8.3810962488
C  -2.0118896601  3.1147478505 -8.1008244748
H   7.7377990728 -2.5743390799  1.5607450703
H   7.0252125293 -4.0415016619  2.2109288442
H   1.8611806982  2.2015727305 -4.8627276101
H   6.6902574827 -1.1953456719  3.3128135075
H   7.6788056214 -2.4619669302  4.0140194047
H   5.6950570318 -3.7509017589  4.7461754968
H   4.3932917105 -1.0874821072  3.9419555010
H   3.3995771992 -3.4129248477  5.7648566791
H   2.0747090346 -0.9763618951  4.4405664735
H   0.9602028611 -3.0592110709  6.4682880218
H  -0.2666045985 -0.9781949988  4.5733320479
H  -1.5483946376 -2.5314218191  6.9025036082
H  -3.6478474595 -2.1224670137  5.8496387704
H  -2.0106665898 -1.4218992339  3.3220071816
H  -4.9766712281 -0.9644142307  3.9656760932
H  -3.1688398300 -0.7650763769  1.4421546158
H  -6.0803057757  0.1146259515  1.8866553822
H  -5.9823265474  0.0817898381 -0.6122351948
H  -3.1490741640  1.1420452550 -0.0223595234
H  -2.9563237348  0.8129922723 -2.4415419775
H  -5.6771407793  2.2543906856 -2.3711420135
H  -5.4116981907  2.0857057577 -4.8203940728
H  -2.4672123421  2.5033509949 -4.0498024072
H   0.2037459009  3.3942804542 -6.2919503092
H  -0.8959491482  0.7743213219 -5.1169361558
H   4.7673024825 -3.3863722625  1.5086382130
H   6.3789212125 -1.2942884875 -0.0658845356
H   3.4835094482 -2.4218307952 -0.2926925309
H   4.9531416537 -0.1598180213 -1.7696075810
H   2.1060326069 -1.4000697704 -2.0005501475
H   3.4461913049  1.0079276938 -3.3659911197
H   0.6445627081 -0.3300484096 -3.6094946529
H  -4.7416861682  2.0327777775 -7.2849170018
H  -4.7341539237  3.7791800830 -6.8814145263
H  -3.7425511649  3.4385603659 -9.3442787844
H  -1.2033571730  3.2696488522 -8.7998330866
