  69
        -91.96435390
 C          7.7405110267       -1.7044739434       -0.0002591920
 C          8.3449411203       -1.1728221705        1.0791352956
 C          7.9729790868        0.0372379420        1.7786173056
 C          6.7159292788        0.4296087550        2.0732252952
 C          5.5442172438       -0.3500113523        1.8286827593
 C          4.2858474308        0.1430967956        1.7720226435
 C          3.1469246627       -0.6846387484        1.5692524154
 C          1.8716736736       -0.2795064580        1.3277934685
 C          1.4359520980        1.0509357954        1.1049487347
 C          0.1414725158        1.3752026007        0.8497541268
 C         -0.2740529894        2.6917032146        0.5298441294
 C         -1.5368819953        3.1064560116        0.2383836282
 C         -2.7233935932        2.3254370166        0.2518233277
 C         -3.9258981773        2.8356700245       -0.1130201268
 C         -5.1847871577        2.1573164765       -0.1253825374
 C         -5.4503084241        0.9546499351        0.4233038539
 C         -6.7454676624        0.3203764711        0.3924095503
 C         -7.9508318149        0.9318342290        0.3630850053
 C         -9.0479495823       -0.0714868917        0.4537014789
 C         -8.3019896755       -1.3565917414        0.5452226498
 C         -6.9693063393       -1.1333415872        0.4902863156
 C         -5.9532507117       -2.1533270733        0.4856761293
 C         -4.7341237379       -2.0271262497       -0.0766709857
 C         -3.7340481434       -3.0405354847       -0.0257610847
 C         -2.4536659319       -2.9116963624       -0.4601454952
 C         -1.8816354900       -1.7608385354       -1.0642833724
 C         -0.5569865952       -1.6403704078       -1.3368239196
 C          0.0291561330       -0.4754735080       -1.8893043643
 C          1.3697418709       -0.2907374594       -1.9999978550
 C          1.9527726282        0.9026599675       -2.4933388327
 C          3.2742881727        1.2248590091       -2.4638360970
 C          4.3143468079        0.4513439650       -1.8856242782
 C          5.5848429319        0.9045736707       -1.7547042793
 C          6.6387196794        0.2264345272       -1.0697145947
 C          6.6960150766       -1.0899206024       -0.7844676702
 H          8.0647699513       -2.6823930446       -0.3393381465
 H          9.2068763889       -1.6891444381        1.4884743023
 H          8.8021470169        0.6457387488        2.1214133884
 H          6.5668499153        1.3938273773        2.5431242505
 H          5.6952211020       -1.4108300799        1.6727774997
 H          4.1347964944        1.2090650633        1.8690966128
 H          3.3350779300       -1.7509555368        1.6236004440
 H          1.1036357122       -1.0402510265        1.2525810411
 H          2.1787670968        1.8365053718        1.0955416534
 H         -0.5996210348        0.5880226534        0.8625000735
 H          0.5156453159        3.4330446125        0.4937962819
 H         -1.6702127025        4.1479803198       -0.0308916565
 H         -2.6486758136        1.2939017010        0.5631010218
 H         -3.9492842869        3.8634155335       -0.4572068793
 H         -5.9907133850        2.6761923807       -0.6295623246
 H         -4.6725127059        0.4194887158        0.9500472475
 H         -8.1326125512        1.9906079117        0.3390631603
 H         -9.6827607292        0.1020317257        1.3272294779
 H         -9.7045593694       -0.0465921464       -0.4207175807
 H         -8.7871115847       -2.3142869303        0.6018690204
 H         -6.2287537584       -3.0943851582        0.9477419452
 H         -4.4930529880       -1.1118804342       -0.5960491689
 H         -4.0253076603       -3.9732517827        0.4419363414
 H         -1.7811622950       -3.7487450239       -0.3138185986
 H         -2.5272281062       -0.9254393393       -1.2989735544
 H          0.1086987751       -2.4586689216       -1.0889768522
 H         -0.6395868427        0.3216368957       -2.1905629031
 H          2.0260750451       -1.0810102457       -1.6639596616
 H          1.2620937576        1.6295170113       -2.9035710192
 H          3.5711734227        2.1830222539       -2.8737555593
 H          4.0612019250       -0.5142568888       -1.4747983224
 H          5.8162040387        1.8971317152       -2.1227577257
 H          7.4632399624        0.8491998102       -0.7448272039
 H          5.9610854240       -1.7623786531       -1.2089672967
