69
WP4-B published_B3LYP_6-31Gd_unconstrained; parent_sha256=7a9d4768ec6e2cfa3d7df68cce9ba73d1b3ca7ddfaf9698b4446e9c48e6f047d
C   5.5622030000 -4.6416470000 -0.0392330000
C  -4.3644470000 -4.1386030000  0.1205320000
C   6.7309820000 -3.9167960000 -0.0212760000
C   6.8275630000 -2.4927010000 -0.0202360000
C   7.9921200000 -1.7754130000  0.0058700000
C   8.0972960000 -0.3389290000  0.0188750000
C   7.0471900000  0.5372300000  0.0356930000
C   7.1217580000  1.9617690000  0.0426590000
C   5.9934560000  2.7374570000  0.0536630000
C   5.9451020000  4.1638510000  0.0529030000
C   4.8004250000  4.9259630000  0.0512830000
C   3.4629760000  4.4249860000  0.0548580000
C   2.3212570000  5.1785800000  0.0288510000
C   1.0217260000  4.5870090000  0.0216680000
C  -0.1777590000  5.2417560000 -0.0290230000
C  -1.4273440000  4.5493030000 -0.0507080000
C  -2.6602280000  5.1301580000 -0.1371590000
C  -3.9269780000  4.4403290000 -0.1711480000
C  -4.1328570000  3.1094670000  0.0452380000
C  -5.3992310000  2.4429780000 -0.0520700000
C  -5.5494670000  1.1082020000  0.1575430000
C  -6.7813400000  0.3420770000  0.0720580000
C  -6.8176080000 -1.1525970000 -0.0232020000
H  -4.5271020000 -5.2122480000  0.2132280000
H  -4.6978700000 -1.4550210000 -0.3132560000
C   4.2425480000 -4.0964480000 -0.0688470000
C   3.0740310000 -4.8083340000 -0.0603490000
C   1.7980290000 -4.1677360000 -0.0815650000
C   0.5721610000 -4.7725830000 -0.0470980000
C  -0.6463430000 -4.0265260000 -0.0537610000
C  -1.9138200000 -4.5331740000  0.0088610000
C  -3.0773720000 -3.7008140000  0.0186490000
C  -8.0613230000  0.7997160000  0.0867280000
C  -9.0232800000 -0.3476690000 -0.0121030000
C  -8.1183530000 -1.5429200000 -0.0806180000
H   5.6410850000 -5.7279760000 -0.0263300000
C  -5.5553530000 -3.3156680000  0.1530440000
H   7.6690390000 -4.4704240000 -0.0001650000
H   5.8928380000 -1.9387870000 -0.0387270000
H   8.9310270000 -2.3284800000  0.0180290000
H   9.1061650000  0.0723950000  0.0168540000
H   6.0356730000  0.1321250000  0.0449060000
H   8.1048210000  2.4335880000  0.0356590000
H   5.0438980000  2.2050170000  0.0585680000
H   6.9007100000  4.6865820000  0.0481210000
H   4.9149780000  6.0091880000  0.0423970000
H   3.3296520000  3.3447240000  0.0747400000
H   2.3944030000  6.2663810000  0.0048750000
H   0.9953030000  3.4963310000  0.0523270000
H  -0.1938580000  6.3316050000 -0.0641850000
H  -1.3628590000  3.4618470000 -0.0134620000
H  -2.7043910000  6.2165690000 -0.2106230000
H  -4.7986940000  5.0556610000 -0.3934940000
H  -3.2841940000  2.4783220000  0.3087380000
H  -6.2627240000  3.0468560000 -0.3317160000
H  -4.6512280000  0.5463730000  0.4099880000
H  -6.4795850000 -3.8403230000  0.3924850000
H   4.1468470000 -3.0123270000 -0.0967440000
H   3.1062750000 -5.8978600000 -0.0289070000
H   1.8150650000 -3.0770570000 -0.1207960000
H   0.5101580000 -5.8603010000 -0.0030170000
H  -0.5408410000 -2.9413950000 -0.1050470000
H  -2.0573120000 -5.6128160000  0.0647560000
H  -2.8899510000 -2.6285990000 -0.0412410000
H  -8.3695760000  1.8336300000  0.1927910000
H  -9.6760570000 -0.2721400000 -0.8974590000
H  -9.7073630000 -0.3881580000  0.8516740000
H  -8.4763300000 -2.5591680000 -0.1997760000
C  -5.6207200000 -1.9779600000 -0.0714470000
