69
WP4-B published_B3LYP_6-31Gd_unconstrained; parent_sha256=130a8915b6cdbe7e1aa88a02aa21513294f060856365724e355625df353641bb
C  -6.2358300000  3.5662790000  0.0000000000
C   3.6149510000  4.9712280000  0.0000000000
C  -7.2964910000  2.5878580000  0.0000000000
C  -7.1384830000  1.2308650000  0.0000000000
C  -8.2024080000  0.2748100000  0.0000000000
C  -8.0552540000 -1.0907430000  0.0000000000
C  -6.8093150000 -1.7929050000  0.0000000000
C  -6.6409260000 -3.1498040000  0.0000000000
C  -5.3407140000 -3.7440170000  0.0000000000
C  -5.0539270000 -5.0792850000  0.0000000000
C  -3.7321630000 -5.6588940000  0.0000000000
C  -2.5531660000 -4.9692930000  0.0000000000
C  -1.2402410000 -5.5347670000  0.0000000000
C  -0.1172250000 -4.7556130000  0.0000000000
C   1.2415430000 -5.2003980000  0.0000000000
C   2.2923330000 -4.3266330000  0.0000000000
C   3.6782230000 -4.6842610000  0.0000000000
C   4.7362830000 -3.8110850000  0.0000000000
C   4.6476800000 -2.3818470000  0.0000000000
C   5.7059160000 -1.5178650000  0.0000000000
C   5.5289880000 -0.0961650000  0.0000000000
C   6.5022770000  0.8555410000  0.0000000000
C   6.2902270000  2.3097320000  0.0000000000
C   5.0727060000  2.9441770000  0.0000000000
C   4.8434290000  4.3527560000  0.0000000000
C  -4.8968770000  3.2946740000  0.0000000000
C  -3.8336490000  4.2493290000  0.0000000000
C  -2.5211470000  3.8650330000  0.0000000000
C  -1.3698420000  4.7108950000  0.0000000000
C  -0.1003950000  4.2022960000  0.0000000000
C   1.1242940000  4.9376550000  0.0000000000
C   2.3440680000  4.3183150000  0.0000000000
C   8.0033080000  0.5995610000  0.0000000000
C   8.5846920000  1.9904200000  0.0000000000
C   7.6183600000  2.9263910000  0.0000000000
H  -6.5444760000  4.6111570000  0.0000000000
H   3.6008540000  6.0603780000  0.0000000000
H  -8.3128550000  2.9813880000  0.0000000000
H  -6.1251210000  0.8382810000  0.0000000000
H  -9.2159430000  0.6745390000  0.0000000000
H  -8.9594320000 -1.6980770000  0.0000000000
H  -5.8993800000 -1.1952610000  0.0000000000
H  -7.5125110000 -3.8051600000  0.0000000000
H  -4.5124060000 -3.0357770000  0.0000000000
H  -5.8874220000 -5.7809590000  0.0000000000
H  -3.6847570000 -6.7475250000  0.0000000000
H  -2.5860660000 -3.8800930000  0.0000000000
H  -1.1444020000 -6.6210200000  0.0000000000
H  -0.2610000000 -3.6737030000  0.0000000000
H   1.4340760000 -6.2738110000  0.0000000000
H   2.0453880000 -3.2662770000  0.0000000000
H   3.9038340000 -5.7500050000  0.0000000000
H   5.7400300000 -4.2343480000  0.0000000000
H   3.6534490000 -1.9379840000  0.0000000000
H   6.7190850000 -1.9191150000  0.0000000000
H   4.4917940000  0.2382690000  0.0000000000
H   4.1921420000  2.3075980000  0.0000000000
H   5.7181320000  4.9999840000  0.0000000000
H  -4.5782030000  2.2524650000  0.0000000000
H  -4.0876560000  5.3096450000  0.0000000000
H  -2.3179120000  2.7925460000  0.0000000000
H  -1.5189960000  5.7908630000  0.0000000000
H  -0.0000000000  3.1153480000  0.0000000000
H   1.0738180000  6.0269210000  0.0000000000
H   2.3367680000  3.2294520000  0.0000000000
H   8.3262520000  0.0211790000  0.8786660000
H   8.3262520000  0.0211790000 -0.8786660000
H   9.6521030000  2.1850030000  0.0000000000
H   7.7872030000  3.9974710000  0.0000000000
