69
WP4-B deterministic ETKDG discovery-audit best; attempt=32; prescreen_energy=206.030962017616
C   0.3288536711 -6.4720194486  4.3491302601
C   1.1073520334 -7.2424521035  3.5791263469
C   1.7977405381 -7.1190833001  2.4408596894
C   2.1936133968 -6.1047145219  1.6649382060
C   2.1639931115 -4.7918855337  1.9292607523
C   2.5149152179 -3.9204293400  0.9696878169
C   2.3869308299 -2.5962812666  1.1616545947
C   2.6010935427 -1.6558955443  0.2244028874
C   3.0866554407 -1.8787095459 -1.0092881139
C   3.0879126650 -0.9028766452 -1.9313685779
C   3.5825327806 -1.1474698049 -3.1574505241
C   3.5114168266 -0.3271351981 -4.2185660429
C   2.8248655022  0.8271706978 -4.2704281499
C   2.8000710915  1.5432107043 -5.4048675687
C   2.0949365315  2.6651036234 -5.6251451767
C   1.2270754388  3.2693427303 -4.7865046995
C   0.5608455883  4.4077886344 -5.0577232771
C   0.7403187053  5.1138138527 -6.2003793496
C  -0.0839949196  6.3386532867 -6.2175712509
C  -0.7427429896  6.1852187422 -4.9062604996
C  -0.3497589973  5.0483645025 -4.2741983523
C  -0.9338561022  4.8317329918 -3.0803037646
C  -0.8981740009  3.8317446743 -2.1698716389
C  -1.6541619840  4.0218348846 -1.0709444368
C  -1.9165073889  3.2833891169  0.0129840978
C  -1.5495122407  2.0564748713  0.4384235483
C  -2.0799347501  1.6922780601  1.6272619371
C  -1.9449277880  0.5538124931  2.3463297882
C  -2.6328187381  0.5479965219  3.5049895883
C  -2.8093685354 -0.2951769320  4.5219343760
C  -2.4498421578 -1.5072029830  4.9423923720
C  -1.6910051861 -2.5060248184  4.4577697722
C  -1.5843910863 -3.5760213449  5.2755993516
C  -0.9436789794 -4.7457919448  5.1665579983
C  -0.2080768020 -5.2509010531  4.1632444290
H   0.0508172568 -6.9840931352  5.2774265254
H   1.1771101584 -8.2628314560  3.9788207577
H   2.1360725838 -8.0872176380  2.0517127737
H   2.6351851285 -6.4158169800  0.7140237459
H   1.8617369089 -4.4225130926  2.9005449625
H   2.8342782958 -4.3133475279  0.0083357101
H   2.0110436206 -2.2372495137  2.1217655942
H   2.3246111933 -0.6377970367  0.5055684739
H   3.4507688464 -2.8612655878 -1.2970022809
H   2.6547991302  0.0611977015 -1.6787393038
H   4.0844061526 -2.1001867887 -3.3394009113
H   4.0189778427 -0.6784158208 -5.1190250478
H   2.2644913016  1.1662428757 -3.4074794944
H   3.4013082562  1.1995516901 -6.2495842019
H   2.2622231875  3.0840152510 -6.6154985698
H   1.0489798438  2.8100869925 -3.8242983205
H   1.3974446670  4.8923065261 -7.0264790759
H   0.5298302501  7.2422057503 -6.2617467504
H  -0.8048360498  6.3333663425 -7.0394326271
H  -1.4581644751  6.9148962655 -4.5505996146
H  -1.6030451374  5.6543095209 -2.7987702630
H  -0.3269988631  2.9227221267 -2.2953722029
H  -2.1916364879  4.9767737188 -1.0140191860
H  -2.5944756352  3.8380940197  0.6745511969
H  -0.8893890366  1.4111423841 -0.1304221148
H  -2.7291426225  2.4477103396  2.0825813924
H  -1.3343893955 -0.2807276473  2.0213473700
H  -3.2099759828  1.4602776491  3.7092470089
H  -3.4722608862  0.1673533229  5.2705375057
H  -2.9043812907 -1.6980325896  5.9238535943
H  -1.2029362046 -2.4496794133  3.4916810955
H  -2.1026156126 -3.5161820125  6.2400186169
H  -1.0569247631 -5.3672013517  6.0613384396
H  -0.0998645359 -4.6964194233  3.2413816486
