69
WP4-B ETKDGv3+MMFF94s; pre_energy=75.077705105177
C  -5.5165411063  3.0162594351 -3.1010518987
C   3.5364366314  3.1267366906 -3.0880679320
C  -6.4695927841  2.2948408487 -2.4830930539
C  -6.2439102608  1.2397249092 -1.5176709464
C  -7.1841805944  0.7345380639 -0.7039136563
C  -6.8595260719 -0.3074630229  0.2465546589
C  -7.6614143343 -0.7082111992  1.2457731778
C  -7.2954035940 -1.7196739527  2.2225602661
C  -6.0512020274 -1.8735066006  2.7040421246
C  -5.6661427428 -2.8478876512  3.7037717598
C  -4.4046646838 -3.1970886787  4.0157113629
C  -3.2082929037 -2.7616703398  3.3243662314
C  -1.9556393604 -2.9750385535  3.7565325390
C  -0.8138041476 -2.5383461418  2.9815196718
C   0.4586049367 -2.5805853944  3.4048334722
C   1.5430568963 -2.1145637413  2.5672883319
C   2.8117035024 -1.9687587090  2.9787712953
C   3.8369942456 -1.4592881749  2.0931401341
C   5.0761365327 -1.1264317216  2.4872989729
C   6.0959006343 -0.5832580461  1.6079680189
C   5.8462911059  0.2930255827  0.6208924523
C   6.8241508204  0.8926565236 -0.2617221412
C   6.5823001432  1.6369578790 -1.3678258415
C   5.2720754149  1.8620894940 -1.9429071190
C   4.8826362562  2.9783912390 -2.5786204682
C  -4.0934120258  2.9483293059 -2.8385333693
C  -3.1555542140  3.6088024316 -3.5356949889
C  -1.7564417186  3.5169339956 -3.1763285689
C  -0.7508724141  4.0844639587 -3.8595384804
C   0.6219030609  3.9430172314 -3.4238033995
C   1.6876098744  4.4051823056 -4.0963006065
C   3.0527902581  4.2567851047 -3.6275778256
C   8.3134499104  0.8005899059 -0.0263515760
C   8.8667690180  1.5952308226 -1.1683883573
C   7.8598762562  2.0543045861 -1.9222463718
H  -5.8348895635  3.7531256850 -3.8372443504
H   2.8862372815  2.2579086345 -2.9964121225
H  -7.5087966556  2.5002178719 -2.7362026390
H  -5.2352832965  0.8379900851 -1.4588974134
H  -8.1993473237  1.1222222981 -0.7134836313
H  -5.8765006805 -0.7627234209  0.1360202578
H  -8.6532729997 -0.2776806741  1.3649724810
H  -8.1099803202 -2.3438997931  2.5828259860
H  -5.2671014619 -1.2088154753  2.3506838352
H  -6.4774046206 -3.3068744760  4.2668114559
H  -4.2585379137 -3.9033869274  4.8317417331
H  -3.3503086839 -2.2477161081  2.3766892550
H  -1.7692076967 -3.4771674749  4.7022670238
H  -1.0302562898 -2.1403842161  1.9906296269
H   0.7028880011 -2.9501993812  4.3974686207
H   1.2816869114 -1.8482622924  1.5437937138
H   3.0930050271 -2.2015910520  4.0027394910
H   3.5520094834 -1.3274114151  1.0506769533
H   5.3819299014 -1.2698190423  3.5216834508
H   7.1110199218 -0.9050655454  1.8268159111
H   4.8178251638  0.6092492027  0.4569656094
H   4.5637579863  1.0445381214 -1.8218856420
H   5.5653068866  3.8165651827 -2.6929982266
H  -3.7773963145  2.3385659503 -1.9959353537
H  -3.4251926719  4.2317971322 -4.3844352216
H  -1.5282313625  2.9380817586 -2.2818121047
H  -0.9443317822  4.6582697169 -4.7621033578
H   0.7752794984  3.4202575731 -2.4804679712
H   1.5627932657  4.9582880432 -5.0243336726
H   3.6903769343  5.1292631203 -3.7522723191
H   8.6668637155 -0.2344641002 -0.0737990888
H   8.5990760677  1.2483435268  0.9309300678
H   9.9176625515  1.7545337387 -1.3550829765
H   7.9625948810  2.6406137533 -2.8231073464
