71
WP4-B published_B3LYP_6-31Gd_unconstrained; parent_sha256=2e5010369c751b1073e39f18db9231234792089aa53754291fd2012babf680d8
C   5.9947270000 -4.3345360000 -0.6139400000
C  -3.9472310000 -4.1904410000  0.4007790000
C   6.8430460000 -3.7131190000  0.5389920000
C   6.8425060000 -2.2125390000  0.5524140000
C   7.8940730000 -1.4219360000  0.2600070000
C   7.8893880000  0.0360050000  0.2233930000
C   6.7836970000  0.8221020000  0.1582100000
C   6.7681300000  2.2574900000  0.1513650000
C   5.6098600000  2.9747160000  0.0944920000
C   5.5105580000  4.4042590000  0.0868690000
C   4.3477920000  5.1297940000  0.0464180000
C   3.0234970000  4.5882590000  0.0165850000
C   1.8633490000  5.3081470000 -0.0333930000
C   0.5806630000  4.6776230000 -0.0601290000
C  -0.6383940000  5.2912340000 -0.1208610000
C  -1.8601750000  4.5484300000 -0.1491510000
C  -3.1189700000  5.0672120000 -0.2372730000
C  -4.3441160000  4.3019710000 -0.2627300000
C  -4.4649990000  2.9763830000  0.0296230000
C  -5.6688270000  2.2015030000 -0.0711810000
C  -5.7033440000  0.8720100000  0.2076300000
C  -6.8474530000 -0.0192730000  0.1193020000
C  -6.7180370000 -1.5104230000  0.0717700000
H  -3.9715440000 -5.2176540000  0.7643300000
H  -4.5785900000 -1.5936180000 -0.2214540000
C   4.5973220000 -3.7957950000 -0.7037630000
C   3.4644000000 -4.4667930000 -0.4113710000
C   2.1480870000 -3.8781510000 -0.4998250000
C   0.9787650000 -4.4942590000 -0.1831760000
C  -0.3003980000 -3.8464250000 -0.2643800000
C  -1.4964040000 -4.3989070000  0.0827250000
C  -2.7411230000 -3.6892490000  0.0165120000
C  -8.1692580000  0.2963680000  0.0938870000
C  -8.9968080000 -0.9533850000  0.0163240000
C  -7.9657130000 -2.0442980000  0.0034520000
H   5.9723960000 -5.4233950000 -0.4802890000
C  -5.2196110000 -3.4952600000  0.4040320000
H   7.8698690000 -4.0910290000  0.4559380000
H   5.8956100000 -1.7468000000  0.8242450000
H   8.8506090000 -1.8987480000  0.0410760000
H   8.8656120000  0.5208500000  0.2361650000
H   5.8067870000  0.3418300000  0.0968130000
H   7.7241120000  2.7804680000  0.1979330000
H   4.6830010000  2.4050150000  0.0533810000
H   6.4497810000  4.9553900000  0.1148390000
H   4.4292260000  6.2160490000  0.0380710000
H   2.9229230000  3.5043900000  0.0365260000
H   1.9051350000  6.3976200000 -0.0562840000
H   0.5889120000  3.5865840000 -0.0303130000
H  -0.6943660000  6.3797430000 -0.1539860000
H  -1.7469320000  3.4649170000 -0.1149260000
H  -3.2222740000  6.1488270000 -0.3215480000
H  -5.2458110000  4.8464580000 -0.5429760000
H  -3.5827170000  2.4300510000  0.3628240000
H  -6.5699910000  2.7086530000 -0.4162770000
H  -4.7665500000  0.4132820000  0.5216910000
H  -6.0732790000 -4.0847480000  0.7363200000
H   4.5064080000 -2.7581750000 -1.0281220000
H   3.5257830000 -5.5063190000 -0.0845950000
H   2.1067620000 -2.8427310000 -0.8420110000
H   0.9989700000 -5.5278080000  0.1650440000
H  -0.2975130000 -2.8155450000 -0.6224370000
H  -1.5210160000 -5.4264530000  0.4480580000
H  -2.6854890000 -2.6674610000 -0.3593270000
H  -8.5904960000  1.2929660000  0.1620410000
H  -9.6346110000 -0.9787960000 -0.8825850000
H  -9.6905410000 -1.0413220000  0.8687180000
H  -8.2059420000 -3.0968260000 -0.0943750000
C  -5.4354410000 -2.1982650000  0.0691460000
H   6.5182560000 -4.1349070000 -1.5598430000
H   6.4361660000 -4.0834650000  1.4908210000
