71
WP4-B deterministic ETKDG discovery-audit best; attempt=28; prescreen_energy=78.925889481677
C   2.4174051616  3.3102545801 -6.1479835488
C   3.1378218932  3.9867120918 -5.2399383471
C   4.5454904210  4.2785776397 -5.4068897228
C   5.3349632268  4.9338279290 -4.5398697479
C   4.9704444301  5.4967351866 -3.2574747310
C   4.5658329404  4.8471693170 -2.1538765900
C   4.4203699051  3.4151843977 -2.0008044562
C   3.9201002456  2.8493759402 -0.8916712698
C   3.7533742535  1.4189459948 -0.7478637047
C   3.1898161101  0.8574176439  0.3338667372
C   2.9621197669 -0.5619292199  0.5142029946
C   2.4241383862 -1.1937823065  1.5854882016
C   2.0364001984 -0.5649047299  2.8352328867
C   1.1225988172 -1.0667513334  3.6818959027
C   0.7742470022 -0.4338633497  4.9378095483
C  -0.1508203433 -0.8555106614  5.8165757316
C  -1.0225085151 -2.0049518107  5.6987076581
C  -1.8932307765 -2.1796859599  4.6925062991
C  -2.7464326599 -3.3430313110  4.5772151472
C  -3.6312932896 -3.6021747713  3.6000250550
C  -3.9669280781 -2.7469529310  2.4817199653
C  -4.7086256493 -3.1621851037  1.4429908395
C  -5.1227067409 -2.3618632864  0.2307289117
C  -4.6797379955 -0.8935819138  0.1252101517
C  -3.2243871737 -0.7245383379 -0.2237350858
C  -2.7859974536 -0.0447541113 -1.2943310590
C  -1.3800859764  0.1355093008 -1.5780752841
C  -0.9287407816  0.8256718344 -2.6371744596
C   0.4831726725  1.0199445893 -2.8853654617
C   1.0605383270  1.6734429907 -3.9062834023
C   0.4063461443  2.3185795779 -5.0257345333
C   1.0076197367  3.0163829022 -6.0044737956
C   2.3981097352 -2.6220743686  1.2970984223
C   2.8813773704 -2.8649786314  0.0734310311
C   3.2932833324 -1.5762211431 -0.5600889157
H   2.8662829288  2.9867494204 -7.0843624912
H   2.6541704292  4.3382040966 -4.3307258993
H   4.9978568174  3.9419781838 -6.3389017091
H   6.3670038876  5.1241004031 -4.8323736598
H   5.0821914324  6.5789836319 -3.1996894602
H   4.3342315650  5.4498266992 -1.2763810480
H   4.7281398853  2.7908459466 -2.8363241546
H   3.6016157374  3.4727697106 -0.0587041291
H   4.0956668396  0.8052963769 -1.5775298041
H   2.8509763031  1.5055300552  1.1388827268
H   2.5405342941  0.3649363958  3.0851203467
H   0.6143878319 -1.9951819605  3.4350044608
H   1.3424661715  0.4580071644  5.1994864623
H  -0.2575625123 -0.3064537399  6.7514476323
H  -0.9643781493 -2.7206310068  6.5156622458
H  -1.9473356187 -1.4266566748  3.9107971320
H  -2.6276956881 -4.0992756168  5.3527591220
H  -4.1599905408 -4.5538782602  3.6471710772
H  -3.5998385928 -1.7269217774  2.5113205864
H  -5.0689071967 -4.1904816723  1.4335301815
H  -4.7899618578 -2.9045053766 -0.6634889229
H  -6.2203006430 -2.3772332373  0.2076535062
H  -4.8886036571 -0.3629021807  1.0616252343
H  -5.2980374007 -0.4098249498 -0.6421556900
H  -2.5031419100 -1.1694454271  0.4585553154
H  -3.4989594605  0.4106290588 -1.9782187337
H  -0.6743943332 -0.3082325505 -0.8770078062
H  -1.6366886173  1.2702320240 -3.3294754916
H   1.1513516111  0.5915460520 -2.1391001749
H   2.1487497740  1.7135876207 -3.8990756928
H  -0.6723029556  2.2038591667 -5.0975413019
H   0.3884621429  3.3921622924 -6.8183160029
H   2.0436790274 -3.3716587136  1.9890460239
H   2.9754399887 -3.8366855397 -0.3863982624
H   2.7203039867 -1.3980101651 -1.4756870962
H   4.3643237158 -1.5874470612 -0.7871328598
