69
WP4-B deterministic ETKDG discovery-audit best; attempt=22; prescreen_energy=84.150517329186
C  -1.8388805111  2.3389861611  0.0049037074
C  -0.7413077034  2.9769404054 -0.4289789646
C  -0.6592598474  3.6103431589 -1.7268742362
C   0.4257052202  4.2849571768 -2.1371629158
C   0.5112055814  4.9238011827 -3.4337558376
C   1.5088100578  5.7131999550 -3.8641150371
C   2.6936558750  6.0905443869 -3.1269407026
C   3.7612391866  5.3241293505 -2.8539085768
C   3.9786387968  3.9611417952 -3.2920166242
C   5.0686211915  3.2601633960 -2.9437815683
C   5.3991817421  1.9354440360 -3.4206985577
C   4.6617551155  0.8142143615 -3.3970861680
C   3.3209065214  0.6512388647 -2.8788232427
C   2.6802269597 -0.5281240880 -2.9049145806
C   1.3334599497 -0.7062166614 -2.4078426260
C   0.7141055150 -1.8978420411 -2.3971705458
C  -0.6364510481 -2.1271880829 -1.9321792200
C  -1.2909993154 -3.3031021910 -1.7940521729
C  -0.7888738168 -4.6391498805 -2.0304657723
C   0.2504437716 -5.2614552460 -1.4494873523
C   1.1927350977 -4.7593415859 -0.4720118665
C   0.9723432439 -4.2289210170  0.7414885850
C  -0.3014572576 -4.0058252303  1.3882111650
C  -0.4149837925 -3.3994919179  2.5800691075
C  -1.6919741395 -3.0952452751  3.1872327920
C  -1.8087675350 -2.5370937673  4.4017840058
C  -3.0714999643 -2.1857221267  5.0149822480
C  -4.0075965146 -1.3478736950  4.5375506537
C  -3.9782194048 -0.5920457404  3.3023359738
C  -2.9647825344  0.2034491169  2.9271352055
C  -2.9527452339  0.9407610572  1.6831609069
C  -1.8940377522  1.6608002776  1.2818069557
C  -2.6584875894 -3.0182283960 -1.3823402559
C  -2.8344110716 -1.7018708501 -1.2245871431
C  -1.5563714246 -0.9934212092 -1.5418724770
H  -2.7261254525  2.2897065599 -0.6227945690
H   0.1468525547  3.0206398983  0.1990141448
H  -1.5267992474  3.5246252272 -2.3777559233
H   1.2849870703  4.3783847034 -1.4768219774
H  -0.3302097229  4.7659406248 -4.1070996461
H   1.4163498033  6.1773113855 -4.8447689477
H   2.7005987115  7.1251499477 -2.7865747267
H   4.5645244422  5.7770238217 -2.2739737899
H   3.2368191814  3.5188674411 -3.9533010861
H   5.8332383421  3.7172011832 -2.3180233452
H   6.4141857093  1.8565758289 -3.8111936390
H   5.1246893158 -0.0861165467 -3.8011185415
H   2.8313084491  1.5234703333 -2.4531315830
H   3.1704088169 -1.4060803904 -3.3205399241
H   0.8305252128  0.1838574443 -2.0364183512
H   1.2439157649 -2.7740240036 -2.7637872844
H  -1.3797489593 -5.2080399472 -2.7473216772
H   0.4720537883 -6.2755831781 -1.7817701649
H   2.2325844519 -4.8797941926 -0.7765741804
H   1.8498025528 -3.9230458929  1.3105350773
H  -1.1942660864 -4.3303572233  0.8626288192
H   0.4757261287 -3.0770511670  3.1144478731
H  -2.5839760090 -3.3077176036  2.6007700771
H  -0.9276772106 -2.3487614979  5.0109638659
H  -3.2419265783 -2.6466019529  5.9869729957
H  -4.9203137962 -1.2184248745  5.1179511971
H  -4.8719373921 -0.6739661960  2.6879010265
H  -2.0870348364  0.2933544695  3.5643208042
H  -3.8340273038  0.8631615720  1.0508543062
H  -1.0078457703  1.7178796041  1.9114012589
H  -3.4045927284 -3.7805727362 -1.2157400551
H  -3.7453873407 -1.2183009360 -0.9098479244
H  -1.7034449375 -0.2864794164 -2.3646624404
H  -1.1769011753 -0.4721528592 -0.6595623970
