71
WP4-B deterministic ETKDG discovery-audit best; attempt=10; prescreen_energy=68.154645180171
C   2.8455286029  4.3636409912  0.0201010778
C   1.7985375299  3.6365509990  0.4370216020
C   1.2356183078  3.7030458552  1.7674102102
C   0.2627624229  2.8626717290  2.1520446785
C  -0.3400620107  2.8647004346  3.4678270808
C  -1.2127871140  1.9610474089  3.9485812359
C  -1.6759396227  0.7700873609  3.2673409889
C  -2.6150014627 -0.1014316351  3.6650634206
C  -3.4211162718 -0.0728206204  4.8666948041
C  -4.4259766712 -0.9220949068  5.1449312029
C  -4.9164231017 -1.9802097060  4.2904942913
C  -4.7881246821 -3.2826756015  4.5998259030
C  -5.3236046789 -4.1341712956  3.4914821242
C  -5.7845461209 -3.1090684465  2.5041015183
C  -5.5475392915 -1.8702322810  2.9719428256
C  -5.9341886450 -0.6606819231  2.2840269770
C  -5.4739929436 -0.1923973878  1.1125377162
C  -4.4467203226 -0.7858270697  0.2820355609
C  -4.0322902295 -0.2193294524 -0.8620829959
C  -3.0054557346 -0.7530669866 -1.7300582200
C  -1.8008109887 -1.1770074204 -1.3173724891
C  -0.7849262850 -1.6544813893 -2.2313722700
C   0.4275238453 -2.0661907893 -1.8302604337
C   1.4358801702 -2.5489738614 -2.7484132900
C   2.6337038770 -2.9980143159 -2.3437680600
C   3.6864203635 -3.5419581778 -3.2733250224
C   5.0401424625 -2.8355784481 -3.1281503529
C   5.0842941993 -1.4854884024 -3.7913655036
C   5.1658645689 -0.3296232379 -3.1159953025
C   5.2499585415  0.9613507930 -3.7620673672
C   5.2053424054  2.1109836082 -3.0723569524
C   5.2995765724  3.4197049565 -3.6867832332
C   5.0192727599  4.5938607634 -3.0943243718
C   4.4983812158  4.7984706522 -1.7574819861
C   3.3797426101  4.2058859333 -1.3135940428
H   3.3365020774  5.0670355285  0.6874473864
H   1.3389337623  2.9239227006 -0.2475791423
H   1.6381674242  4.4424185911  2.4548488647
H  -0.1058139493  2.1334794342  1.4356273736
H  -0.0627193096  3.6924185891  4.1195022070
H  -1.5914136423  2.1280079126  4.9540699487
H  -1.2051638094  0.5401250633  2.3141072616
H  -2.7992802228 -0.9382799044  2.9922227635
H  -3.1867887002  0.6860702182  5.6077474194
H  -4.9430296380 -0.8235019834  6.0972892001
H  -4.3374792056 -3.6770426271  5.4984816838
H  -4.5408787023 -4.7688714375  3.0661698872
H  -6.1560216201 -4.7542372912  3.8363743909
H  -6.2603236002 -3.3466752193  1.5639705032
H  -6.6644660790 -0.0590397520  2.8232252443
H  -5.8845471152  0.7544574238  0.7636502406
H  -3.9940584541 -1.7134556051  0.6233364226
H  -4.5012730962  0.6948142263 -1.2219830923
H  -3.2469213664 -0.7336245214 -2.7912094383
H  -1.5512178900 -1.1585636344 -0.2584326447
H  -1.0401841905 -1.6718923704 -3.2891140283
H   0.6854991903 -2.0515438389 -0.7732697186
H   1.1901241329 -2.5502316853 -3.8084417615
H   2.8799558517 -3.0077514791 -1.2838118413
H   3.3501239613 -3.5072014642 -4.3170278938
H   3.8236451754 -4.6018334061 -3.0246361493
H   5.8112994564 -3.4570433172 -3.6006619946
H   5.3168234587 -2.7611857427 -2.0687332923
H   5.0659489893 -1.4830957175 -4.8790004032
H   5.1698972457 -0.3437286068 -2.0274286880
H   5.3428264197  0.9746383203 -4.8454497159
H   5.0952284542  2.0794050868 -1.9903060146
H   5.6498825217  3.4427210814 -4.7176944843
H   5.1940171125  5.5103993229 -3.6560373929
H   5.0498581596  5.4952956258 -1.1313853227
H   2.8361226357  3.5359061306 -1.9797337952
