71
WP4-B published_B3LYP_6-31Gd_unconstrained; parent_sha256=2f766812e65d2a9e46747f9539e0df21c74140c7f6677b66c1dac15c136ef224
C   5.9394080000 -4.3426870000 -0.5405990000
C  -4.0444840000 -4.3028060000  0.2054350000
C   6.8115380000 -3.7111620000  0.5901100000
C   6.8157000000 -2.2106940000  0.5865250000
C   7.8616170000 -1.4289410000  0.2513920000
C   7.8635010000  0.0275320000  0.1893580000
C   6.7610600000  0.8198390000  0.1325030000
C   6.7557090000  2.2542840000  0.0966370000
C   5.6025480000  2.9814180000  0.0426260000
C   5.5165680000  4.4103880000  0.0081260000
C   4.3595710000  5.1477900000 -0.0308770000
C   3.0309270000  4.6216410000 -0.0373930000
C   1.8754290000  5.3537280000 -0.0719790000
C   0.5897700000  4.7354120000 -0.0686600000
C  -0.6308230000  5.3553180000 -0.0960340000
C  -1.8494560000  4.6155180000 -0.0831080000
C  -3.1171140000  5.1317920000 -0.1040380000
C  -4.3384380000  4.3726620000 -0.0855590000
C  -4.4315970000  3.0067900000 -0.0413730000
C  -5.6274540000  2.2343410000 -0.0192140000
C  -5.5932610000  0.8624750000  0.0275920000
C  -6.6877000000 -0.0409930000  0.0581730000
C  -6.6069160000 -1.4361960000  0.1063660000
C  -5.3963960000 -2.2021890000  0.1270210000
C  -5.2820780000 -3.5611380000  0.2003330000
C   4.5328860000 -3.8270390000 -0.5875480000
C   3.4112710000 -4.5372470000 -0.3452350000
C   2.0889320000 -3.9611570000 -0.3978960000
C   0.9181630000 -4.6126670000 -0.1615300000
C  -0.3574380000 -3.9599050000 -0.2141980000
C  -1.5725820000 -4.5347710000  0.0221080000
C  -2.7971960000 -3.7968740000 -0.0256360000
C  -8.1496280000  0.3549160000  0.0476550000
C  -8.8683750000 -0.9668580000  0.0966210000
C  -7.9736220000 -1.9727340000  0.1294950000
H   5.9389640000 -5.4326000000 -0.4140600000
H  -4.1275260000 -5.3699270000  0.4106440000
H   7.8355480000 -4.0917120000  0.4874550000
H   5.8796870000 -1.7360190000  0.8798660000
H   8.8093750000 -1.9142110000  0.0132690000
H   8.8423980000  0.5068010000  0.1712270000
H   5.7801480000  0.3447660000  0.0997660000
H   7.7164690000  2.7701650000  0.1170280000
H   4.6699250000  2.4197050000  0.0280010000
H   6.4611800000  4.9529040000  0.0147150000
H   4.4532860000  6.2328670000 -0.0562640000
H   2.9186580000  3.5390510000 -0.0089730000
H   1.9281230000  6.4426380000 -0.1006690000
H   0.5906550000  3.6443230000 -0.0383180000
H  -0.6835590000  6.4441240000 -0.1265390000
H  -1.7304270000  3.5328110000 -0.0514380000
H  -3.2233700000  6.2158500000 -0.1363720000
H  -5.2646780000  4.9460840000 -0.1074920000
H  -3.5091640000  2.4267690000 -0.0185750000
H  -6.5821680000  2.7595140000 -0.0389060000
H  -4.6003730000  0.4150190000  0.0455510000
H  -4.4752460000 -1.6262280000  0.0909900000
H  -6.1895510000 -4.1572350000  0.2783120000
H   4.4212980000 -2.7716950000 -0.8403140000
H   3.4886820000 -5.5965250000 -0.0946620000
H   2.0400690000 -2.8997080000 -0.6467180000
H   0.9370540000 -5.6743690000  0.0874490000
H  -0.3403480000 -2.8964580000 -0.4589650000
H  -1.6242120000 -5.5960620000  0.2681420000
H  -2.6972660000 -2.7397030000 -0.2711550000
H  -8.4090750000  0.9945390000  0.9044930000
H  -8.4139520000  0.9317340000 -0.8512970000
H  -9.9481240000 -1.0646040000  0.1017860000
H  -8.2114950000 -3.0301930000  0.1646480000
H   6.4336850000 -4.1281260000 -1.4992420000
H   6.4250910000 -4.0730120000  1.5534170000
