71
WP4-B ETKDGv3+MMFF94s; pre_energy=64.427670127086
C   3.7399481041  3.3963420600  3.3959656496
C  -0.7874503476 -4.4733753904  2.6915026022
C   4.7318597570  3.9485558455  2.3594819242
C   4.1164551027  4.2183313760  1.0127799436
C   3.6924390760  5.4198889785  0.5926628924
C   3.0704078091  5.6014571894 -0.6995000634
C   2.5333008599  6.7602419526 -1.1123498481
C   1.8887622387  6.9460590594 -2.3978650268
C   1.0432790396  6.0595092377 -2.9480839679
C   0.3942563525  6.2563731810 -4.2277020853
C  -0.3713604282  5.3704679170 -4.8887829876
C  -0.7022312239  4.0254703984 -4.4672158229
C  -1.3922356618  3.1548380295 -5.2220483162
C  -1.7117699232  1.8033484977 -4.8041494218
C  -0.8369203955  0.9884297597 -4.1940190264
C  -1.0800722511 -0.3686233310 -3.7584514077
C  -2.2328918592 -0.8408709318 -3.2592639934
C  -2.3364335747 -2.1737667547 -2.7062257052
C  -3.4714056714 -2.6956451474 -2.2164265081
C  -3.4901774178 -3.9811457418 -1.5545210107
C  -4.5952699979 -4.5658204098 -1.0664183237
C  -4.5473161253 -5.7942606756 -0.3024541255
C  -3.6781177704 -6.1149195736  0.8407059500
C   2.9948450912  2.1694538490  2.9442153318
C   3.0602433601  0.9658828439  3.5338177324
C   2.2855672139 -0.1555004249  3.0523517397
C   2.2483827731 -1.3580957846  3.6464254001
C   1.4285326348 -2.4314516967  3.1280808652
C   1.2788947395 -3.6261145642  3.7219998753
C   0.4411391101 -4.6836428365  3.1890163067
C  -5.3468332296 -6.8465730770 -0.5474047901
C  -5.0387853193 -7.9619655294  0.4017575133
C  -3.9612184754 -7.3642841373  1.2521594367
C  -1.6250765128 -5.5036613815  2.1169872035
C  -2.7856053951 -5.1976656941  1.5162172601
H   3.0003595407  4.1709419590  3.6356751077
H   4.2848737946  3.1916108159  4.3257886580
H  -1.1939539141 -3.4626018103  2.6858246340
H   5.1803764438  4.8671888704  2.7581023515
H   5.5582449164  3.2395835874  2.2240334371
H   4.0119858347  3.3496241758  0.3644788363
H   3.7828962584  6.2882783615  1.2411476203
H   3.0334140202  4.7291547113 -1.3499273650
H   2.5848206128  7.6472132675 -0.4844306808
H   2.1027823314  7.8899318776 -2.8945679666
H   0.8274030728  5.1406204828 -2.4109221711
H   0.5603177146  7.2233570349 -4.7017818787
H  -0.7739747373  5.6801460228 -5.8527939967
H  -0.3598255950  3.7084989709 -3.4864234737
H  -1.7764610814  3.4464363828 -6.1969926522
H  -2.7135638658  1.4594315801 -5.0505368354
H   0.1803833237  1.3335383726 -4.0108156698
H  -0.1970130832 -1.0065216514 -3.7751623042
H  -3.1138883417 -0.2060165021 -3.2048812699
H  -1.4143243322 -2.7510450739 -2.6530875298
H  -4.4026573238 -2.1361116049 -2.2599254153
H  -2.5267467221 -4.4712784621 -1.4151778500
H  -5.5756808069 -4.1184517223 -1.2062362697
H   2.3334728069  2.3118325402  2.0906605487
H   3.6959674117  0.8124799304  4.4024480388
H   1.6901070455  0.0172006164  2.1567267110
H   2.8227638134 -1.5483230634  4.5495197522
H   0.8985766166 -2.2276161791  2.1984424269
H   1.8189007514 -3.8651828329  4.6352042333
H   0.8611520252 -5.6859770667  3.2292982556
H  -6.0926902438 -6.9069008964 -1.3259552694
H  -5.9158734242 -8.2206902579  1.0020555004
H  -4.6797012681 -8.8483502546 -0.1289920602
H  -3.5262014389 -7.8654943434  2.1038525445
H  -1.2675031427 -6.5293346185  2.1453357672
H  -3.1007970941 -4.1557066603  1.4670791228
