73
WP4-B published_B3LYP_6-31Gd_unconstrained; parent_sha256=1230602e530bd7c703abb374d31356a697cdfa10ceb27a737c828f7b0b9351aa
C   6.4078750000 -4.0041590000  0.0000000000
C   6.2898920000 -2.6342830000  0.0000000000
C   3.9885440000 -4.6345120000  0.0000000000
C   5.3288960000 -4.9424510000  0.0000000000
C   1.6001690000 -5.1550300000  0.0000000000
C   2.9152400000 -5.5605840000  0.0000000000
C  -0.8257000000 -5.4678220000  0.0000000000
C   0.4501720000 -5.9837740000  0.0000000000
C  -3.6639500000 -4.3326840000  0.0000000000
C  -3.3109090000 -5.7052830000  0.0000000000
C  -2.0270940000 -6.2208520000  0.0000000000
C   7.3566280000 -1.6999910000  0.0000000000
C   7.1364960000 -0.3417980000  0.0000000000
C   8.1329360000  0.6677990000  0.0000000000
C   7.9048800000  2.0318010000  0.0000000000
C   6.6334150000  2.6609440000  0.0000000000
C   6.3966010000  4.0162400000  0.0000000000
C   5.0817610000  4.5479540000  0.0000000000
C   4.7408940000  5.8796730000  0.0000000000
C   3.4114310000  6.4073110000  0.0000000000
C   2.2489220000  5.6734900000  0.0000000000
C   0.9295590000  6.1936910000  0.0000000000
C  -0.1779200000  5.3780420000  0.0000000000
C  -1.5372490000  5.7834370000  0.0000000000
C  -2.5728240000  4.8786730000  0.0000000000
C  -3.9557030000  5.1993240000  0.0000000000
C  -5.0013520000  4.2965220000  0.0000000000
C  -4.8861430000  2.8810400000  0.0000000000
C  -5.9336530000  1.9909080000  0.0000000000
C  -5.7321520000  0.5840780000  0.0000000000
C  -6.6928610000 -0.3927060000  0.0000000000
C  -6.4570260000 -1.8288920000  0.0000000000
C  -5.2219900000 -2.4472510000  0.0000000000
C  -4.9492650000 -3.8357800000  0.0000000000
C  -8.1971760000 -0.1629070000  0.0000000000
C  -8.7566910000 -1.5625270000  0.0000000000
C  -7.7702980000 -2.4776680000  0.0000000000
H   7.4135650000 -4.4236200000  0.0000000000
H   5.2903390000 -2.2003380000  0.0000000000
H   3.6979850000 -3.5842410000  0.0000000000
H   5.6042230000 -5.9966670000  0.0000000000
H   1.4142810000 -4.0794420000  0.0000000000
H   3.1473010000 -6.6261010000  0.0000000000
H  -0.9086000000 -4.3818370000  0.0000000000
H   0.5885170000 -7.0655190000  0.0000000000
H  -2.8591510000 -3.5990050000  0.0000000000
H  -4.1338970000 -6.4193950000  0.0000000000
H  -1.9243020000 -7.3053600000  0.0000000000
H   8.3798750000 -2.0775650000  0.0000000000
H   6.0951600000 -0.0234910000  0.0000000000
H   9.1697030000  0.3332190000  0.0000000000
H   8.7760210000  2.6858700000  0.0000000000
H   5.7533960000  2.0196130000  0.0000000000
H   7.2392130000  4.7086820000  0.0000000000
H   4.2809360000  3.8089330000  0.0000000000
H   5.5509310000  6.6084010000  0.0000000000
H   3.3220300000  7.4932760000  0.0000000000
H   2.3215830000  4.5862330000  0.0000000000
H   0.7974980000  7.2762180000  0.0000000000
H   0.0000000000  4.3011710000  0.0000000000
H  -1.7610870000  6.8508240000  0.0000000000
H  -2.2962410000  3.8253510000  0.0000000000
H  -4.2103930000  6.2585870000  0.0000000000
H  -6.0122140000  4.7028570000  0.0000000000
H  -3.8847060000  2.4529750000  0.0000000000
H  -6.9528490000  2.3769200000  0.0000000000
H  -4.6902070000  0.2649140000  0.0000000000
H  -4.3438070000 -1.8028920000  0.0000000000
H  -5.7803610000 -4.5404460000  0.0000000000
H  -8.5289590000  0.4104950000  0.8785660000
H  -8.5289590000  0.4104950000 -0.8785660000
H  -9.8202180000 -1.7761970000  0.0000000000
H  -7.9127220000 -3.5527660000  0.0000000000
