73
WP4-B ETKDGv3+MMFF94s; pre_energy=95.340088123636
C  -0.2909536336 -6.0767233349 -1.7323077277
C  -1.3623990905 -6.7316730098 -2.4507387648
C  -1.1193635016 -6.2733395005  0.6116145610
C  -0.1899370108 -5.8458925603 -0.4135748206
C  -0.4865969082 -4.6664325402  2.4082483607
C  -1.2283427179 -5.7793951400  1.8563974326
C  -0.0038280933 -3.0193913898  4.1776151072
C  -0.7078023233 -4.1631972505  3.6330889647
C   1.3464102916  0.3390579539  3.3610984868
C   0.9419409333 -0.7540575838  4.0301265253
C   0.2651808513 -1.9064332462  3.4761862154
C  -2.6582552618 -6.3797754020 -2.4936677196
C  -3.3067930114 -5.2869981814 -1.8006652872
C  -3.0849669690 -3.9669413031 -1.9139259785
C  -2.1441694521 -3.3173410145 -2.8024936241
C  -1.8716564433 -2.0037454273 -2.8873750482
C  -2.4526671787 -0.9302623105 -2.1064298748
C  -2.1666535869  0.3786964254 -2.2048032743
C  -1.2075449871  1.0203517133 -3.0753787093
C   0.1144620202  0.7979409758 -3.0284142166
C   1.0937358139  1.4354839201 -3.8818948776
C   1.2458266652  2.7395584779 -4.1675082591
C   0.4631957482  3.8690009564 -3.7112503956
C   0.1484233159  4.1137387287 -2.4300317268
C  -0.6069656810  5.2760539754 -2.0109039578
C  -1.0422076291  5.5542045512 -0.7705158544
C  -0.8826937488  4.7315511648  0.4083137856
C  -1.2923298996  5.0997167196  1.6317351272
C  -1.1643711558  4.2638961958  2.8071733661
C  -0.0426995993  3.7109242846  3.2983615976
C   1.2943985400  3.8499145584  2.7707861615
C   2.0084484915  2.9556303253  1.8561709669
C   1.5723398345  1.7034966554  1.2864092725
C   1.2490261865  0.5732285544  1.9344670229
C   2.0570417894  4.9354300539  2.9944089723
C   3.3455815900  4.8285462274  2.2433905223
C   3.1891806006  3.5173241042  1.5405421386
H   0.5269149807 -5.7410122738 -2.3687825640
H  -1.0424735162 -7.5790251386 -3.0554645750
H  -1.7973562003 -7.0782677285  0.3321147609
H   0.6918286083 -5.3048999462 -0.0784349116
H   0.2620962106 -4.1998560635  1.7742507632
H  -1.9826804958 -6.2226580291  2.5051157658
H   0.2673754704 -3.0927214477  5.2283843384
H  -1.4383665229 -4.6204457047  4.2967449781
H   1.8291319258  1.1236255446  3.9422609162
H   1.1293872740 -0.7798065811  5.1030138579
H  -0.0516019193 -1.8494520861  2.4383301346
H  -3.3370487254 -7.0025424263 -3.0747876260
H  -4.0934284365 -5.6073929857 -1.1181578404
H  -3.6909522952 -3.3219042553 -1.2832407686
H  -1.6054830060 -3.9730688363 -3.4844386439
H  -1.1382187639 -1.7077446573 -3.6357514801
H  -3.2172303850 -1.2041139060 -1.3839532362
H  -2.7363144515  1.0742369974 -1.5884025879
H  -1.6184845059  1.7695244098 -3.7486118052
H   0.5129163023  0.0514476872 -2.3434893111
H   1.8120961797  0.7396634777 -4.3154170784
H   2.0419871152  3.0121493854 -4.8603380850
H   0.1751554886  4.5715065075 -4.4906008948
H   0.4771510777  3.4168457389 -1.6648437893
H  -0.8347352031  6.0019220507 -2.7908213122
H  -1.5823024966  6.4895267694 -0.6287114830
H  -0.4188688427  3.7582090121  0.2848456438
H  -1.8013302249  6.0480038445  1.7852572668
H  -2.0943717007  4.1038157001  3.3501676866
H  -0.1147129941  3.0975417138  4.1939418766
H   1.4961970590  1.7063242864  0.1996567139
H   0.9192014389 -0.2586951082  1.3171267470
H   1.7797526954  5.7853797917  3.5997991123
H   4.2020878259  4.8153897048  2.9234135730
H   3.4539957065  5.6485926704  1.5276442317
H   3.9277745246  3.1014759465  0.8715239441
