75
WP4-B ETKDGv3+MMFF94s; pre_energy=80.395384140584
C  -7.2396491576  2.3563206516  0.1671283836
C  -6.1515810049  1.9400887045 -0.7892111878
C  -5.6828463149  2.6416291966  2.1587396770
C  -6.7452518644  3.2695356746  1.2991185393
C  -4.7455127161  1.8378792674  4.2815792903
C  -5.8114425219  2.3847387086  3.4699789931
C  -2.8912422917  0.2882228602  4.7147076383
C  -4.0047945372  0.7754807707  3.9304117747
C  -0.1452725408 -2.1436164009  4.5449880251
C  -0.9393043537 -1.1699758309  5.0154795817
C  -2.1308212870 -0.7421391842  4.3148292554
C  -5.9060826858  0.6602373756 -1.1100037178
C  -4.8332870474  0.1889539844 -1.9581516527
C  -4.3203429048  0.8328770394 -3.0181098231
C  -3.2575143730  0.2703746243 -3.8236269513
C  -2.6596679349  0.9302428543 -4.8274693991
C  -1.5966028812  0.3417817179 -5.6127001990
C  -0.9128548551  1.0081934566 -6.5558933561
C   0.1335412666  0.4186153454 -7.3664024938
C   1.2276180823 -0.2445109433 -6.9547129753
C   1.6280017485 -0.4732935319 -5.5827742044
C   2.5995256492 -1.3290789396 -5.2294850347
C   2.9554470586 -1.5591000638 -3.8463927189
C   3.7843530846 -2.5354357511 -3.4462218525
C   4.0676524338 -2.7738537409 -2.0483305114
C   4.7148651938 -3.8585173125 -1.5951228613
C   4.8802144229 -4.1274461549 -0.1849543746
C   5.5173796755 -3.3133865980  0.6704534258
C   5.5717260331 -3.5480065279  2.0974454035
C   4.4573636153 -3.5995791867  2.8444861441
C   4.3899234110 -3.7719840103  4.2785375579
C   3.2912857406 -3.6652195717  5.0633785964
C   1.9562920516 -3.3825343961  4.5803660455
C   1.1210862916 -2.4986259773  5.1480220560
C   5.5961615520 -4.0783477369  5.1341969112
C   5.0032208727 -4.1486788271  6.5080497151
C   3.6870602397 -3.9115397901  6.4395349006
H  -7.7329616344  1.4771746242  0.6006772145
H  -8.0044181532  2.8961602908 -0.4045347021
H  -5.5431314972  2.7390058022 -1.2063726591
H  -4.7412010542  2.4185216626  1.6586110579
H  -6.3383294886  4.1952183019  0.8729462994
H  -7.6067952742  3.5633924409  1.9114342171
H  -4.5727203472  2.3457322994  5.2279968112
H  -6.7263490023  2.6453886492  3.9971296486
H  -2.6504880082  0.8257414076  5.6291798592
H  -4.2086887929  0.2657534252  2.9901256500
H  -0.4161927797 -2.6654924834  3.6287763985
H  -0.6671862181 -0.6282867364  5.9187178923
H  -2.3715952868 -1.2633428855  3.3898543446
H  -6.5106725790 -0.1280251515 -0.6629058663
H  -4.4582599911 -0.7991729734 -1.6942665551
H  -4.6983104141  1.8116075766 -3.3031513084
H  -2.9377331175 -0.7407281891 -3.5771548707
H  -2.9600928639  1.9465895558 -5.0719946955
H  -1.3531590004 -0.7001704630 -5.4097315201
H  -1.1650457493  2.0384429585 -6.7976631892
H  -0.0045466558  0.5572927769 -8.4383895164
H   1.8929039984 -0.6415591691 -7.7205190029
H   1.0946741803  0.0799257624 -4.8126208271
H   3.1287242892 -1.9038939277 -5.9859936078
H   2.4844172124 -0.9135940038 -3.1064871569
H   4.2370276899 -3.2063378268 -4.1726661518
H   3.6836570795 -2.0439109336 -1.3366610048
H   5.0537733442 -4.6360894803 -2.2751689249
H   4.4337952082 -5.0558500232  0.1672037361
H   6.0171335932 -2.4141253675  0.3163932656
H   6.5625896929 -3.6074753452  2.5377155525
H   3.5026972389 -3.4662925702  2.3378912285
H   1.6666558993 -3.8869382323  3.6612705462
H   1.4182797008 -1.9660049033  6.0486942068
H   6.3449567341 -3.2815980214  5.0798204022
H   6.0504714876 -5.0359709310  4.8602949697
H   5.5592318403 -4.3634092812  7.4076857193
H   3.0001027899 -3.9060119057  7.2726260442
