75
WP4-B deterministic ETKDG discovery-audit best; attempt=12; prescreen_energy=77.643139085118
C   0.5424756079  5.2345436250  0.6298227640
C  -0.1828423186  5.8637093518  1.5668223883
C   0.2563950993  6.0501853240  2.9323338720
C   0.5852729293  5.0946945100  3.8179433845
C   0.5629022466  3.6593353083  3.6254828983
C  -0.5013638738  2.9747296924  3.1777137435
C  -0.5461112813  1.5429501457  2.9767851437
C  -0.0818808574  0.6333925998  3.8465765093
C  -0.1870436456 -0.7907534537  3.6236893356
C   0.3109555530 -1.6951687534  4.4797068600
C   0.2121035481 -3.1843670531  4.2849552904
C   1.5683936117 -3.8172092850  3.9547226088
C   1.9179467062 -3.7158308836  2.4945221506
C   2.7362611266 -2.7834714805  1.9844597326
C   3.0844758113 -2.7318407765  0.5831896729
C   3.8226538004 -1.7465400785  0.0502784609
C   4.2619257667 -1.7042495596 -1.3275358402
C   3.5340406956 -1.8277538355 -2.4490122407
C   2.0994740622 -1.9959040708 -2.5498971487
C   1.4896373083 -2.2648959549 -3.7150635929
C   0.0634318972 -2.4202915610 -3.9098117465
C  -0.7834481359 -3.0028529129 -3.0466731783
C  -2.1972844362 -3.2207079746 -3.2820067567
C  -2.8500227002 -4.2383367249 -2.6871777903
C  -4.2884860867 -4.2554182240 -3.0910362408
C  -4.3689708742 -3.0673216798 -3.9918007575
C  -3.1730503370 -2.4551157160 -4.0734652239
C  -2.9974154796 -1.2600736126 -4.8666770651
C  -2.4504577353 -0.1306980766 -4.3927148845
C  -2.2468469148  1.0516897297 -5.2003523581
C  -1.7289859739  2.1826122854 -4.6975768502
C  -1.4725548651  3.3628352084 -5.4961170479
C  -0.9339329452  4.5186774382 -5.0720256705
C  -0.4955225333  4.8614328854 -3.7356970938
C   0.3763932791  4.1418032712 -3.0126098181
C   0.8281761881  4.4608521120 -1.6752483130
C   0.0723861790  5.0260285339 -0.7210884136
H   1.5215624152  4.8333839395  0.8852548961
H  -1.1476127505  6.3018150748  1.3218730388
H   0.2914421167  7.0889002806  3.2575207306
H   0.9311876233  5.4072258528  4.8024194495
H   1.4707901910  3.1365766132  3.9177863938
H  -1.4061817884  3.5048845415  2.8859105555
H  -1.0459636272  1.2248981358  2.0634908557
H   0.3885779229  0.9581822392  4.7720108872
H  -0.6865973814 -1.1239568280  2.7160018878
H   0.8205866252 -1.3663808309  5.3831656100
H  -0.5300528295 -3.4354050872  3.5168353869
H  -0.1592684982 -3.6128144548  5.2242330767
H   1.5343297361 -4.8839175515  4.2096945169
H   2.3618665238 -3.3826066616  4.5760114553
H   1.4710710063 -4.4643173795  1.8434789733
H   3.1637029762 -2.0259897573  2.6386396776
H   2.7389592400 -3.5500295550 -0.0456952827
H   4.2023257803 -0.9443866106  0.6801559195
H   5.3319948796 -1.5287385771 -1.4391082683
H   4.0735285785 -1.7809932365 -3.3948292846
H   1.5140619831 -1.8826119771 -1.6411605095
H   2.0764568737 -2.3481037053 -4.6285954709
H  -0.2937856832 -2.0833136694 -4.8805455522
H  -0.3995955406 -3.3931170683 -2.1059254373
H  -2.4105281553 -4.9714217672 -2.0266042385
H  -4.5394515844 -5.1763764125 -3.6250148321
H  -4.9448854922 -4.1403585254 -2.2237263160
H  -5.2793885815 -2.7421156528 -4.4736149465
H  -3.3565122799 -1.3131011738 -5.8917135259
H  -2.1210291268 -0.0887986099 -3.3553422999
H  -2.5108312971  0.9891881243 -6.2534450084
H  -1.4826595151  2.2279213394 -3.6396028101
H  -1.7583746525  3.3010854590 -6.5455684337
H  -0.8478403894  5.3336354397 -5.7901611936
H  -0.8944741126  5.7962418278 -3.3479092783
H   0.8195527597  3.2422880068 -3.4385631149
H   1.8424450185  4.1374137535 -1.4468216197
H  -0.9525461415  5.3194742238 -0.9363945123
