75
WP4-B published_B3LYP_6-31Gd_unconstrained; parent_sha256=a274e19c532f04b6be49a8da595df258cce65d214c89f17c2a67fa5352137a4a
C  -6.0154360000 -4.7668830000  0.5753510000
C  -5.9830630000 -3.2671870000  0.6057010000
C  -3.7400710000 -4.9041620000 -0.6000400000
C  -5.1585280000 -5.3916650000 -0.5678640000
C  -1.3006790000 -5.0941780000 -0.3784840000
C  -2.6371480000 -5.6402770000 -0.3513590000
C   1.1438500000 -5.1616610000 -0.1477210000
C  -0.1514700000 -5.7783590000 -0.1311530000
C   3.9107550000 -3.8569300000  0.0652010000
C   3.6357710000 -5.1927810000  0.1200170000
C   2.3252780000 -5.7979050000  0.0939590000
C  -7.0111830000 -2.4402340000  0.3241200000
C  -6.8916050000 -1.0008490000  0.3371250000
C  -7.8891990000 -0.1240290000  0.0495360000
C  -7.7739080000  1.3186810000  0.0040040000
C  -6.6108200000  2.0289850000  0.0158970000
C  -6.4971030000  3.4555250000 -0.0191380000
C  -5.2889940000  4.0933220000 -0.0228810000
C  -5.0911450000  5.5095370000 -0.0594850000
C  -3.8784590000  6.1540950000 -0.0709180000
C  -2.5960600000  5.5247360000 -0.0501170000
C  -1.3857740000  6.1631950000 -0.0660120000
C  -0.1526870000  5.4458230000 -0.0464320000
C   1.1119880000  5.9700080000 -0.0624630000
C   2.2719270000  5.1408170000 -0.0421900000
C   3.5733970000  5.5641090000 -0.0556440000
C   4.7379900000  4.7201000000 -0.0376680000
C   4.7377630000  3.3507230000 -0.0254160000
C   5.8825580000  2.5035190000 -0.0001740000
C   5.7675220000  1.1359400000  0.0137750000
C   6.8115070000  0.1732150000  0.0461850000
C   6.6569070000 -1.2153380000  0.0656070000
C   5.4097030000 -1.9207950000  0.0486110000
C   5.2163190000 -3.2729040000  0.0859670000
C   8.2923620000  0.4906290000  0.0734260000
C   8.9396980000 -0.8678760000  0.1108960000
C   7.9922280000 -1.8248150000  0.1064470000
H  -7.0485780000 -5.1208740000  0.4694050000
H  -5.0252780000 -2.8166840000  0.8693620000
H  -3.6040160000 -3.8496180000 -0.8433940000
H  -5.1805830000 -6.4838190000 -0.4646890000
H  -1.2228240000 -4.0307500000 -0.6107230000
H  -2.7409980000 -6.6999690000 -0.1119950000
H   1.1556700000 -4.0957710000 -0.3753440000
H  -0.2026880000 -6.8429500000  0.1011520000
H   3.0808070000 -3.1522250000  0.0130170000
H   4.4775860000 -5.8795500000  0.2069940000
H   2.2917680000 -6.8706160000  0.2839940000
H  -7.9838170000 -2.8604130000  0.0620500000
H  -5.9072450000 -0.6137440000  0.6003130000
H  -8.8773360000 -0.5308270000 -0.1661370000
H  -8.7095570000  1.8733230000 -0.0649780000
H  -5.6670930000  1.4838280000  0.0392180000
H  -7.4155390000  4.0432370000 -0.0457910000
H  -4.4031230000  3.4609400000  0.0043340000
H  -5.9899000000  6.1247160000 -0.0815800000
H  -3.8859210000  7.2430480000 -0.1005480000
H  -2.5701400000  4.4366790000 -0.0207890000
H  -1.3519390000  7.2528180000 -0.0959130000
H  -0.2387200000  4.3581300000 -0.0166160000
H   1.2476880000  7.0516410000 -0.0923520000
H   2.0737890000  4.0696660000 -0.0120510000
H   3.7571840000  6.6379500000 -0.0803280000
H   5.7019500000  5.2281260000 -0.0338850000
H   3.7791110000  2.8322900000 -0.0347310000
H   6.8673800000  2.9702030000  0.0107940000
H   4.7512610000  0.7440440000  0.0019750000
H   4.5112770000 -1.3077600000  0.0014240000
H   6.0697790000 -3.9482090000  0.1367470000
H   8.6056680000  1.0694190000 -0.8083500000
H   8.5667590000  1.0994780000  0.9478210000
H   10.0124180000 -1.0227620000  0.1362010000
H   8.1718040000 -2.8941790000  0.1273830000
H  -5.6456100000 -5.1470690000 -1.5231050000
H  -5.6361320000 -5.1565480000  1.5311270000
