75
WP4-B ETKDGv3+MMFF94s; pre_energy=69.858326024769
C   6.7205649381 -2.3245982543 -4.4516297673
C   6.3245986012 -1.1090262793 -3.7701895657
C   4.5002175332 -3.4714509384 -4.4600844807
C   5.9106769612 -3.3509199843 -4.7670724640
C   2.6133182951 -3.4763406339 -2.8448396812
C   4.0110743211 -3.4229012157 -3.2112398227
C   0.2733328726 -2.7076954827 -3.0332028129
C   1.6344858881 -2.8366159201 -3.5039219004
C  -2.5120593642 -4.2961356492 -1.2428145156
C  -1.7800444107 -3.4037205428 -1.9269452453
C  -0.4523619167 -3.6660555824 -2.4368987735
C   7.1857066924 -0.1644073541 -3.3606206330
C   6.7867751816  1.0560056064 -2.6873070025
C   5.8667807714  1.1110828676 -1.7111205159
C   5.4765895630  2.3343031297 -1.0440252347
C   4.5260940742  2.3600872376 -0.0968629506
C   4.0868832924  3.5346198902  0.6220840347
C   3.8623030840  4.7381185676  0.0724441573
C   3.3307787037  5.9154637425  0.8477684176
C   2.0187017630  6.4765489668  0.2797771711
C   0.8757770551  5.4988223993  0.3389419204
C  -0.2436015389  5.6814420433  1.0562243147
C  -1.3190103332  4.7156371705  1.0633255395
C  -2.4537568069  4.8694934859  1.7638336303
C  -3.5469831913  3.9190470696  1.7434783189
C  -3.3901015934  2.5931445737  1.8773275952
C  -4.4820201736  1.6459512058  1.8104941309
C  -4.2775764131  0.3221582019  1.8829809701
C  -5.3257908690 -0.6649139730  1.7362555461
C  -5.0537734936 -1.9788422690  1.7057426821
C  -6.0044926382 -3.0441089396  1.4651690470
C  -5.7369203439 -4.3178917696  0.7756478118
C  -4.5223704879 -4.7483692574  0.1131002849
C  -3.7838842771 -3.9345731394 -0.6573043872
C  -7.2542656875 -3.0841181000  1.9627257866
C  -7.9055138981 -4.3908093185  1.6354740754
C  -6.8204796645 -5.1055529373  0.8938113409
H   7.7662900190 -2.3944135103 -4.7471310837
H   5.2604106603 -0.9648063817 -3.5964816872
H   3.8424179598 -3.6250071897 -5.3122412652
H   6.3245561934 -4.1824297832 -5.3354869025
H   2.4029685314 -3.9809393699 -1.9038227083
H   4.6956253888 -3.3282320303 -2.3687063810
H  -0.1600975679 -1.7215778474 -3.1969645393
H   1.8638199516 -2.2626872559 -4.4002197878
H  -2.1383585960 -5.3014473889 -1.0652148644
H  -2.1675998901 -2.3968552619 -2.0778101040
H  -0.0377246446 -4.6591959469 -2.2826703055
H   8.2514234913 -0.2649255714 -3.5537106672
H   7.3153443753  1.9544466057 -2.9989015528
H   5.3672134777  0.1985475398 -1.3898300122
H   5.9808663743  3.2512495525 -1.3396392532
H   4.0434611850  1.4348157441  0.2147670665
H   3.8661590595  3.3729105572  1.6761793309
H   4.0469849783  4.8994769970 -0.9873806398
H   3.1897654763  5.6552757334  1.9044880475
H   4.0897237969  6.7069126292  0.8195637552
H   2.1644037054  6.7750586708 -0.7659310431
H   1.7645028208  7.3907184094  0.8305562628
H   0.9897740261  4.6000271937 -0.2653337680
H  -0.3665794967  6.5800956674  1.6563991834
H  -1.1812823948  3.8262632292  0.4503357389
H  -2.6250384809  5.7691278501  2.3507799321
H  -4.5388701740  4.3510453701  1.6291415412
H  -2.3913630731  2.1827930448  2.0185572099
H  -5.4836599823  2.0409388013  1.6577003747
H  -3.2661751391 -0.0576942884  2.0210188199
H  -6.3432335528 -0.3086350509  1.5965458542
H  -4.0226655138 -2.3140032137  1.8108938118
H  -4.2149271221 -5.7765068214  0.2870723349
H  -4.1269184419 -2.9161678915 -0.8363496064
H  -7.7238021230 -2.3170325736  2.5603064422
H  -8.1816553212 -4.9315865426  2.5453520851
H  -8.7897211236 -4.2481476383  1.0077057207
H  -6.9207833002 -6.1068652545  0.5019405786
