73
WP4-B deterministic ETKDG discovery-audit best; attempt=2; prescreen_energy=98.451432896328
C   2.9715139170 -2.8179869740  1.1415817273
C   2.7929598640 -1.8779620294  0.1955994069
C   3.2598631682 -2.0396111427 -1.1618020490
C   2.6375997232 -2.7004016993 -2.1527770557
C   1.3725126892 -3.3923935409 -2.0322040249
C   0.6407548047 -3.9446961310 -3.0121715175
C   0.9272353203 -3.9841093596 -4.4314727935
C   0.0859754331 -4.4136662215 -5.3887062262
C  -1.2719319178 -4.8853979181 -5.2085328864
C  -2.3212202556 -4.1638733960 -4.7818509332
C  -2.3026416581 -2.7466166072 -4.4930538808
C  -2.6155836536 -2.1689043296 -3.3219712842
C  -2.9597801178 -2.8638442069 -2.0987089742
C  -3.2095869606 -2.3122943306 -0.9000147680
C  -3.3097963474 -0.9014127303 -0.5907522057
C  -3.1744995411 -0.3318427935  0.6187050061
C  -2.7681468585 -0.9881679014  1.8441655516
C  -2.7026761054 -0.4444754205  3.0703337477
C  -3.0587597194  0.8936402938  3.4873485546
C  -2.4948700081  2.0627051724  3.1423357389
C  -1.3832891783  2.2570010016  2.2353198275
C  -0.8185166867  3.4216965296  1.8736971026
C  -1.1705165614  4.7521104433  2.3246275201
C  -0.6145925385  5.9102840246  1.9317387697
C   0.4509598174  6.1245165784  0.9779772181
C   1.6742518707  5.5789613176  1.0558265498
C   2.7564109664  5.8627297261  0.1365356020
C   2.7320637995  5.8273387475 -1.2062907835
C   1.6114763104  5.4823169058 -2.0538586027
C   1.0319417273  4.2782446019 -2.1866534465
C   1.4445218229  3.0539375942 -1.5347275185
C   0.7846526055  1.8937704626 -1.6736906120
C   1.1947587174  0.6397412654 -1.0798675940
C   1.6383643785  0.4933222995  0.1781293418
C   2.0276402651 -0.7664331795  0.7717499781
C   1.8082832740 -1.0353021949  2.0726091967
C   2.3650912935 -2.3753112295  2.4338030669
H   3.4808307624 -3.7603680580  1.0040648193
H   4.1976034657 -1.5322507590 -1.3798325711
H   3.1160549317 -2.6979141174 -3.1280368331
H   0.9532949571 -3.4508427960 -1.0278403991
H  -0.2947278406 -4.4091864884 -2.7045988502
H   1.9133084254 -3.6547438124 -4.7473576483
H   0.4454456349 -4.4478719856 -6.4157669678
H  -1.4275274892 -5.9332924257 -5.4586863590
H  -3.2844510508 -4.6563996456 -4.6630021740
H  -1.9800759722 -2.1085522277 -5.3145128626
H  -2.5350532671 -1.0857074571 -3.2701936727
H  -2.9508454384 -3.9516791099 -2.1453294933
H  -3.3854328338 -2.9969092883 -0.0722939853
H  -3.5619979406 -0.2432673268 -1.4200267802
H  -3.3460135874  0.7414829215  0.6780725508
H  -2.4715712094 -2.0315690757  1.7597207768
H  -2.4065400827 -1.0949248487  3.8931252650
H  -3.8619997299  0.9210954531  4.2237296194
H  -2.9157428875  2.9534140963  3.6014378821
H  -0.9691112916  1.3552181789  1.7854941920
H  -0.0092025379  3.3613322583  1.1486345429
H  -1.9819709135  4.8282254028  3.0435509489
H  -1.0357207042  6.8327184441  2.3312437178
H   0.2230823126  6.8388881758  0.1895264583
H   1.9274725998  4.9238927582  1.8869154485
H   3.6985560672  6.1129475714  0.6227465359
H   3.6345869932  6.1095885305 -1.7461821647
H   1.2321224415  6.3054601295 -2.6571059309
H   0.1851092333  4.2002039358 -2.8667458515
H   2.3415069618  3.0937549379 -0.9215432551
H  -0.0958159515  1.8326907148 -2.3099967171
H   1.0639596364 -0.2305148520 -1.7193781028
H   1.7005694040  1.3598761815  0.8328627954
H   1.2958832369 -0.3911945105  2.7725790376
H   1.5743832502 -3.0587708120  2.7563362759
H   3.1232021153 -2.2904873840  3.2176379058
