73
WP4-B deterministic ETKDG discovery-audit best; attempt=12; prescreen_energy=285.462318839090
C   3.9320856594 -0.4550519159 -0.7534693005
C   3.2903242147  0.2382155874 -1.6954465964
C   2.1200662071 -0.4804417157 -2.1898150668
C   1.1982357505  0.0221118764 -3.0308300382
C   0.9937146687  1.2412882201 -3.5641476472
C   1.3803501884  2.4970831746 -3.2829696097
C   1.8471442235  2.9677172052 -2.1149142645
C   2.2531834551  4.2461564907 -1.9839743633
C   2.6356622452  4.7088479358 -0.7790468282
C   3.1457281553  5.9441740837 -0.6157744153
C   3.5360617759  6.4932553935  0.5517233124
C   3.2841211656  6.1748412900  1.8360580124
C   2.2759683821  5.4929028674  2.4145131180
C   1.0840576776  5.2761179442  1.8405210426
C   0.0421564743  4.5313480620  2.2273120027
C  -0.1967533737  3.6753695069  3.2271615834
C   0.5080923090  3.3620794384  4.3245883878
C   0.2749487977  2.2912319036  5.1145778620
C  -0.3586843057  1.1241626300  4.8602148443
C  -0.6718145124  0.6831879974  3.6311942471
C  -1.2423072138 -0.4632649144  3.2423410872
C  -1.7091968348 -1.4852489331  3.9790544264
C  -2.2044160142 -2.6356595642  3.4678547798
C  -2.2799878059 -2.9238732958  2.1545463494
C  -2.6885850271 -4.1083870819  1.6657771752
C  -2.6876475757 -4.4413464058  0.3556266173
C  -2.3627524419 -3.6197255223 -0.6605085390
C  -2.1855967753 -3.9229412245 -1.9558018154
C  -2.2873141673 -5.1194327841 -2.5485230054
C  -1.9747638592 -5.3867303795 -3.8277503525
C  -1.3024095248 -4.7355039851 -4.7912217094
C  -0.4125165218 -3.7318392945 -4.8734752227
C   0.4117391494 -3.1034013829 -4.0159862328
C   0.7174575721 -3.4776981828 -2.7686942611
C   1.5185709507 -2.9054359260 -1.8585080997
C   2.1610885905 -1.7374548050 -1.6714732892
C   3.2465861185 -1.7583757174 -0.5822053565
H   4.8342719345 -0.1509678487 -0.2463633716
H   3.6506281103  1.1771425257 -2.0847390844
H   0.4543808789 -0.6822334775 -3.3857364559
H   0.3355073032  1.2045403262 -4.4406438289
H   1.1857651989  3.2299830538 -4.0699342987
H   1.8650788818  2.3145523908 -1.2445052553
H   2.2794084907  4.9031034454 -2.8521081661
H   2.5629969900  4.0426454985  0.0795391857
H   3.3776742176  6.5191439607 -1.5143958470
H   4.2363465836  7.3250719030  0.4282912640
H   4.0138091437  6.5706029080  2.5486172791
H   2.4332990017  5.2014870381  3.4465889596
H   0.9043787010  5.7746344587  0.8847831078
H  -0.7814352684  4.5670839602  1.5032534806
H  -1.1492862017  3.1550111984  3.0981343928
H   1.2880430965  4.0363742246  4.6623215221
H   0.7268559556  2.3485994820  6.1084975765
H  -0.5106332113  0.4580157164  5.7082174968
H  -0.3722560306  1.2846674017  2.7740677489
H  -1.2969993273 -0.5231293267  2.1568348996
H  -1.6777424052 -1.4140307388  5.0652009599
H  -2.5299116508 -3.3860147916  4.1892380510
H  -1.9504437870 -2.1787047027  1.4461234723
H  -2.9900434077 -4.8884334861  2.3658050144
H  -2.9470942990 -5.4764636227  0.1393799149
H  -2.1652458621 -2.5682553924 -0.4589454473
H  -1.9005428018 -3.0720605613 -2.5752605820
H  -2.7198079555 -5.9460268978 -1.9866474585
H  -2.4006658159 -6.3369749027 -4.1694782811
H  -1.5296880516 -5.1472234107 -5.7831765715
H  -0.2768179722 -3.3745243284 -5.9015008200
H   0.9759439736 -2.2789004168 -4.4468846555
H   0.3405369990 -4.4536709402 -2.4573452513
H   1.7231637472 -3.6202518324 -1.0493717862
H   3.9570176082 -2.5771150207 -0.7448733823
H   2.8084466858 -1.8388431477  0.4188642013
