73
WP4-B ETKDGv3+MMFF94s; pre_energy=302.069723715794
C   3.5019600073 -4.0982072738  1.5598001980
C   4.1258799516 -3.6009512176  2.6477863632
C   1.6691407476 -3.7234802670  0.0448588455
C   2.3380705482 -3.5320939449  1.1920634736
C   1.1350280691 -4.7718391100 -2.0120900232
C   1.8106649297 -4.7203147558 -0.8462421902
C   1.1308678043 -2.5165865550 -2.7841584023
C   0.6382304426 -3.7715912273 -2.7698936168
C  -0.9351414238 -0.3146123285 -4.8199445027
C  -0.5120945663 -1.3698657410 -4.0999634459
C   0.6960620305 -1.4787497011 -3.5217541504
C   5.4254512318 -3.8324994008  2.8669484963
C   6.2474701734 -3.2160980594  3.7299579673
C   6.2467038831 -2.1440011125  4.5375843829
C   5.5394994725 -1.0392975943  4.8227808310
C   4.5112978139 -0.3450035932  4.3111466362
C   3.9282592872 -0.5170610272  3.1212025326
C   2.7380869295 -0.0260296074  2.7407164708
C   1.9852852452  0.9212185033  3.3255694084
C   0.6837740867  0.9971543969  2.9929780984
C  -0.0768354222  2.0782096798  3.2393567765
C  -1.4034568883  2.1052772314  3.0078446122
C  -2.2213163230  1.0380401716  3.1298142443
C  -3.5256144960  1.0337608782  2.8040963390
C  -4.1893901139  1.6537661146  1.8092166469
C  -3.7666399947  2.0478358866  0.5881570331
C  -2.5650627163  1.7525616056  0.0691034157
C  -2.1305385158  1.8795826125 -1.1896337889
C  -2.7755157286  2.3228417203 -2.2830889870
C  -2.1123432410  2.2000674033 -3.4471559803
C  -2.5366504297  2.5589776803 -4.6715269357
C  -1.8027184264  2.4120722666 -5.8077601448
C  -0.6676101083  1.7191055017 -6.0388076727
C  -0.1760002615  0.6215475485 -5.4256192220
C  -3.7764879882  3.3745294933 -4.9762018870
C  -3.5284373370  3.8167295580 -6.3844642998
C  -2.3859983566  3.2760755482 -6.8264607967
H   4.0054757813 -4.8035758397  0.9031168266
H   3.5967267652 -2.9254210923  3.3107576242
H   0.8798425035 -2.9899073820 -0.1382874466
H   1.9329784281 -2.7381642448  1.8209168944
H   0.9769208707 -5.7762371465 -2.4123551302
H   2.3676313809 -5.6080015712 -0.5490454423
H   2.0446532580 -2.3202839768 -2.2191427292
H  -0.0806055722 -4.0521993862 -3.5396842978
H  -2.0168492222 -0.2620954575 -4.9666756295
H  -1.2673101980 -2.1239335439 -3.8761174170
H   1.3650851349 -0.6175539375 -3.5539897142
H   5.8970892103 -4.6167549229  2.2685458361
H   7.2034783512 -3.7545527410  3.7924851137
H   7.1310622693 -2.1843756945  5.1920255115
H   5.9056465429 -0.5592607931  5.7407395064
H   4.1137773450  0.4301469756  4.9678345241
H   4.3964751603 -1.1982776400  2.4177457218
H   2.3350868691 -0.4930333122  1.8387718404
H   2.4072011910  1.6084837390  4.0541700178
H   0.2343883741  0.1637452291  2.4492413111
H   0.4186151470  3.0174879079  3.4855602674
H  -1.8591888281  3.0812129729  2.8314716903
H  -1.8523968984  0.1848233724  3.7019052367
H  -4.1478855472  0.3772842580  3.4183024020
H  -5.2753709684  1.6946739841  1.9303280618
H  -4.5192011512  2.4960780550 -0.0591766473
H  -1.8286212371  1.2540505628  0.6920919114
H  -1.1093025346  1.5041527165 -1.3178037300
H  -3.7870931566  2.7104831606 -2.2393032927
H  -1.1081534751  1.7856661753 -3.3826419088
H  -0.0406443691  2.0956775448 -6.8506993492
H   0.8832728653  0.4087834707 -5.5698050704
H  -3.8643376247  4.2456201595 -4.3186581843
H  -4.6834365782  2.7644832177 -4.9156378004
H  -4.1717694482  4.4782655622 -6.9438866631
H  -1.9628718365  3.4282538546 -7.8088266538
