73
WP4-B published_B3LYP_6-31Gd_unconstrained; parent_sha256=7d0fe27372244d497416afd80c3168b68491f600877aee628b07ea89e9329367
C  -0.0808560000  5.0734190000 -5.7067190000
C  -0.0665050000  3.6517250000 -5.8354650000
C  -0.0767380000  5.2029390000 -3.2132010000
C  -0.0832580000  5.7727610000 -4.5232430000
C  -0.0416600000  5.2515660000 -0.7645840000
C  -0.0577400000  5.9005880000 -2.0366730000
C   0.0290100000  5.1181570000  1.6833440000
C   0.0000000000  5.8571480000  0.4605070000
C  -0.0526090000  3.5856180000  4.3417980000
C   0.1423660000  4.9255040000  4.1794460000
C   0.1038580000  5.6565080000  2.9358910000
C  -0.0539150000  2.9463540000 -7.0087410000
C  -0.0323740000  1.5200220000 -7.0276490000
C  -0.0129910000  0.7199310000 -8.1367880000
C   0.0129910000 -0.7199310000 -8.1367880000
C   0.0323740000 -1.5200220000 -7.0276490000
C   0.0539150000 -2.9463540000 -7.0087410000
C   0.0665050000 -3.6517250000 -5.8354650000
C   0.0808560000 -5.0734190000 -5.7067190000
C   0.0832580000 -5.7727610000 -4.5232430000
C   0.0767380000 -5.2029390000 -3.2132010000
C   0.0577400000 -5.9005880000 -2.0366730000
C   0.0416600000 -5.2515660000 -0.7645840000
C  -0.0000000000 -5.8571480000  0.4605070000
C  -0.0290100000 -5.1181570000  1.6833440000
C  -0.1038580000 -5.6565080000  2.9358910000
C  -0.1423660000 -4.9255040000  4.1794460000
C   0.0526090000 -3.5856180000  4.3417980000
C  -0.0444130000 -2.8840450000  5.5895430000
C   0.1444510000 -1.5427370000  5.7011910000
C   0.0608480000 -0.7465250000  6.9143140000
C  -0.0608480000  0.7465250000  6.9143140000
C  -0.1444510000  1.5427370000  5.7011910000
C   0.0444130000  2.8840450000  5.5895430000
C   0.1019260000 -1.1706840000  8.2055030000
C  -0.0000000000  0.0000000000  9.1380360000
C  -0.1019260000  1.1706840000  8.2055030000
H  -0.0858310000  5.6476160000 -6.6323910000
H  -0.0607300000  3.0648880000 -4.9184610000
H  -0.0830280000  4.1170610000 -3.1348490000
H  -0.0871160000  6.8605890000 -4.5801440000
H  -0.0580330000  4.1604700000 -0.7849470000
H  -0.0477190000  6.9908890000 -2.0590150000
H   0.0061990000  4.0333400000  1.5793360000
H   0.0205040000  6.9459300000  0.5196420000
H  -0.2977000000  2.9760200000  3.4721220000
H   0.3482110000  5.5160690000  5.0721270000
H   0.1613210000  6.7417420000  3.0173610000
H  -0.0575260000  3.4793330000 -7.9601760000
H  -0.0304640000  1.0466090000 -6.0461880000
H  -0.0175120000  1.2027110000 -9.1135420000
H   0.0175120000 -1.2027110000 -9.1135420000
H   0.0304640000 -1.0466090000 -6.0461880000
H   0.0575260000 -3.4793330000 -7.9601760000
H   0.0607300000 -3.0648880000 -4.9184610000
H   0.0858310000 -5.6476160000 -6.6323910000
H   0.0871160000 -6.8605890000 -4.5801440000
H   0.0830280000 -4.1170610000 -3.1348490000
H   0.0477190000 -6.9908890000 -2.0590150000
H   0.0580330000 -4.1604700000 -0.7849470000
H  -0.0205040000 -6.9459300000  0.5196420000
H  -0.0061990000 -4.0333400000  1.5793360000
H  -0.1613210000 -6.7417420000  3.0173610000
H  -0.3482110000 -5.5160690000  5.0721270000
H   0.2977000000 -2.9760200000  3.4721220000
H  -0.3051730000 -3.4680180000  6.4724590000
H   0.3782130000 -1.0005680000  4.7858710000
H  -0.3782130000  1.0005680000  4.7858710000
H   0.3051730000  3.4680180000  6.4724590000
H  -0.2291190000  2.1942380000  8.5390330000
H   0.8736110000  0.0718470000  9.8068170000
H  -0.8736110000 -0.0718470000  9.8068170000
H   0.2291190000 -2.1942380000  8.5390330000
