75
WP4-B published_B3LYP_6-31Gd_unconstrained; parent_sha256=d8cf5a97f86c41e44e8e6486a2a593b4daf888854aeac531b7221b905c5f98c3
C  -5.1279510000  5.4726200000  0.0278350000
C  -5.3406330000  4.0577220000  0.0370910000
C  -2.6324810000  5.4590190000  0.0100930000
C  -3.9090590000  6.1034140000  0.0144930000
C  -0.1877190000  5.3600630000 -0.0329540000
C  -1.4182670000  6.0861680000 -0.0212190000
C   2.2409190000  5.0574840000 -0.0997560000
C   1.0740860000  5.8829730000 -0.0802050000
C   4.7494500000  3.3138660000  0.0174310000
C   4.7101850000  4.6600460000 -0.1944590000
C   3.5320190000  5.4943570000 -0.1718360000
C  -6.5546250000  3.4319770000  0.0402410000
C  -6.6789100000  2.0057970000  0.0435770000
C  -7.8455300000  1.3017990000  0.0286280000
C  -7.9635360000 -0.1415160000  0.0430640000
C  -6.9636570000 -1.0223260000  0.3092260000
C  -7.0746890000 -2.4614920000  0.2646570000
C  -6.0376880000 -3.2841660000  0.5256680000
C  -6.0516260000 -4.7822350000  0.4652330000
C  -5.1710870000 -5.3743440000 -0.6789410000
C  -3.7626680000 -4.8575500000 -0.6907880000
C  -2.6530050000 -5.5634970000 -0.3914530000
C  -1.3256490000 -4.9935700000 -0.3907000000
C  -0.1794840000 -5.6510370000 -0.0719940000
C   1.1120470000 -5.0234620000 -0.0537770000
C   2.2753490000 -5.6424330000  0.2893900000
C   3.5910280000 -5.0450560000  0.3539840000
C   3.9243850000 -3.7618750000  0.0440660000
C   5.2428530000 -3.2045350000  0.1674960000
C   5.5309800000 -1.9085990000 -0.1174930000
C   6.8306090000 -1.2628050000 -0.0176870000
C   7.0057340000  0.2205840000  0.0856160000
C   5.8892560000  1.1484300000  0.1433900000
C   5.9226380000  2.4917750000 -0.0604160000
C   8.0613180000 -1.8383740000 -0.0289800000
C   9.1257610000 -0.7852550000  0.0767420000
C   8.3369520000  0.4896950000  0.1461160000
H  -6.0201150000  6.0977150000  0.0275080000
H  -4.4611150000  3.4160330000  0.0396210000
H  -2.6176640000  4.3705500000  0.0292310000
H  -3.9038690000  7.1926700000  0.0025820000
H  -0.2775800000  4.2726490000 -0.0057570000
H  -1.3755360000  7.1756460000 -0.0436200000
H   2.0542180000  3.9840600000 -0.0691290000
H   1.2079720000  6.9648140000 -0.1103710000
H   3.8251370000  2.7914440000  0.2636080000
H   5.6520940000  5.1679810000 -0.4011630000
H   3.7026240000  6.5686430000 -0.2379580000
H  -7.4679640000  4.0281140000  0.0372190000
H  -5.7384310000  1.4546890000  0.0426680000
H  -8.7797800000  1.8610940000 -0.0180610000
H  -8.9522640000 -0.5434150000 -0.1787220000
H  -5.9805250000 -0.6373660000  0.5799570000
H  -8.0444260000 -2.8837850000 -0.0043120000
H  -5.0837220000 -2.8290560000  0.7953270000
H  -7.0786020000 -5.1478370000  0.3405450000
H  -5.6545230000 -5.1289730000 -1.6354090000
H  -3.6421250000 -3.8062820000 -0.9556710000
H  -2.7436780000 -6.6183290000 -0.1262600000
H  -1.2554180000 -3.9382120000 -0.6591940000
H  -0.2292360000 -6.7064510000  0.1996270000
H   1.1310300000 -3.9676820000 -0.3244150000
H   2.2218630000 -6.6964240000  0.5617410000
H   4.3902130000 -5.7013480000  0.6983790000
H   3.1515360000 -3.0812060000 -0.3132110000
H   6.0308280000 -3.8626700000  0.5345150000
H   4.7058750000 -1.2785140000 -0.4480150000
H   4.9181220000  0.7106830000  0.3711040000
H   6.8635620000  2.9788830000 -0.3171350000
H   8.7869430000  1.4681110000  0.2705140000
H   9.8136720000 -0.8068900000 -0.7845370000
H   9.7653530000 -0.9222430000  0.9642930000
H   8.2710220000 -2.8957650000 -0.1436630000
H  -5.1718290000 -6.4677340000 -0.5875080000
H  -5.6774880000 -5.1855540000  1.4173860000
