75
WP4-B deterministic ETKDG discovery-audit best; attempt=20; prescreen_energy=93.232965981481
C  -2.8473835384 -0.0929465829  1.9603718964
C  -1.8982102631 -0.7107055881  2.6805638705
C  -0.5618489773 -0.2545980201  2.9891611372
C   0.3537923048  0.0731733333  2.0657136040
C   1.7058264251  0.4553281545  2.4046824415
C   2.6243795274  0.7666032856  1.4787577846
C   3.9814458680  1.1723948383  1.7686106155
C   4.9053091389  0.5586089992  2.5261215140
C   4.8157166022 -0.6721050782  3.2821490814
C   4.2561133132 -1.8128871700  2.8509586081
C   4.2799890579 -3.1023295682  3.6260275194
C   3.1068812182 -3.2960738441  4.5990351174
C   1.7486123468 -3.6669165709  4.0596596334
C   1.3497978942 -3.6829043668  2.7796307887
C   0.0077791602 -4.0485753236  2.3806801321
C  -0.4456102961 -3.8570436063  1.1324294719
C  -1.7886414475 -4.2000675801  0.7138342229
C  -2.3799293583 -3.8698412710 -0.4469177436
C  -1.8180765110 -3.0543993490 -1.5020508788
C  -2.4491140603 -2.7974727513 -2.6588363089
C  -1.8742678134 -1.9891371544 -3.7138854007
C  -1.3361219532 -0.7752682876 -3.5135874365
C  -0.7021037074  0.0318693915 -4.5373239932
C  -0.5294917443  1.3735730737 -4.4771480005
C  -1.0531737234  2.2909488168 -3.4892312071
C  -0.6194464134  3.5449496106 -3.2891143785
C  -1.1947219152  4.4179558293 -2.2930632975
C  -2.4389502119  4.9108980271 -2.3822071534
C  -3.0203161896  5.7833964669 -1.3887680647
C  -3.3584203471  5.4542707436 -0.1314046008
C  -3.2632305876  4.1557553534  0.5033685993
C  -3.7579731209  3.0246112198 -0.0237363104
C  -3.7730654083  1.7347784806  0.6295742746
C  -2.7621712426  1.2122299411  1.3405866856
C   0.2838118282  1.8381218745 -5.6640875267
C   0.5490074206  0.5582686932 -6.3912767661
C  -0.0131358650 -0.4565617884 -5.7236408095
H  -3.7956780780 -0.6164816197  1.8430664530
H  -2.1460636435 -1.6743218273  3.1245538682
H  -0.2967764180 -0.2731650781  4.0440038114
H   0.0927513940  0.0348273002  1.0098557000
H   1.9721322992  0.4740720632  3.4593776065
H   2.3558178570  0.7799232274  0.4241284904
H   4.2791135270  2.0884339841  1.2583094655
H   5.8731686639  1.0518159224  2.6217848038
H   5.3182289841 -0.6541168857  4.2477350957
H   3.7885739673 -1.8461095444  1.8702180777
H   4.3393204927 -3.9419936085  2.9227366160
H   5.2110462136 -3.1415786796  4.2075961599
H   3.3935625987 -4.1043702618  5.2852791662
H   2.9923083559 -2.3985661993  5.2201874716
H   1.0294752707 -3.9364209695  4.8325563486
H   2.0313143880 -3.3952686847  1.9847704433
H  -0.6442190116 -4.4674655877  3.1433049780
H   0.2163821993 -3.4112708289  0.3953556337
H  -2.3699828124 -4.7924415690  1.4195858464
H  -3.3962518073 -4.2267457725 -0.6097547843
H  -0.8352884914 -2.6217044844 -1.3351431230
H  -3.4189543593 -3.2382452889 -2.8767633631
H  -1.9262086008 -2.4175619953 -4.7118442559
H  -1.3359796093 -0.3559552324 -2.5086859787
H  -1.8605292007  1.9145611761 -2.8619571743
H   0.2235657396  3.9526409039 -3.8395663092
H  -0.5492762288  4.6863913574 -1.4596250840
H  -3.0608369351  4.6939222641 -3.2478318469
H  -3.2073363193  6.8007097701 -1.7282561374
H  -3.7511207066  6.2383242083  0.5148471626
H  -2.8286168211  4.1541414624  1.5006330950
H  -4.2554991974  3.0498588680 -0.9916521082
H  -4.6830018841  1.1588717009  0.4702627644
H  -1.8444855740  1.7788323995  1.4748921390
H   1.2264784763  2.3006083767 -5.3543058546
H  -0.2823603236  2.5320206610 -6.2937430604
H   1.1231668522  0.4739856626 -7.3010351134
H   0.0408670842 -1.4976820205 -6.0044370069
